14889
FCC Au polycrystal, 4 grains, a=4.078 A, box 80.0x80.0x40.0 A (generated, seed=7)
Au 0.0003 17.1177 1.5753
Au 0.0023 34.4427 22.1485
Au 0.0047 49.0180 3.4066
Au 0.0137 68.5924 18.3679
Au 0.0274 5.7202 33.6048
Au 0.0274 70.1825 12.1192
Au 0.0310 6.9177 6.1233
Au 0.0330 24.2427 26.6964
Au 0.0412 71.7727 5.8705
Au 0.0636 14.0426 31.2443
Au 0.0673 15.2400 3.7628
Au 0.0692 32.5650 24.3359
Au 0.0722 55.1842 37.5775
Au 0.0769 37.2000 16.3675
Au 0.0860 56.7743 31.3288
Au 0.0907 38.7901 10.1188
Au 0.0943 3.8426 35.7923
Au 0.0980 5.0400 8.3107
Au 0.0997 58.3645 25.0801
Au 0.0999 22.3650 28.8839
Au 0.1036 23.5624 1.4023
Au 0.1044 40.3803 3.8700
Au 0.1134 59.9546 18.8314
Au 0.1225 79.5290 33.7927
Au 0.1272 61.5448 12.5827
Au 0.1306 12.1650 33.4318
Au 0.1342 13.3624 5.9503
Au 0.1362 30.6874 26.5234
Au 0.1409 63.1349 6.3340
Au 0.1547 64.7251 0.0853
Au 0.1613 1.9649 37.9797
Au 0.1649 3.1623 10.4982
Au 0.1669 20.4873 31.0713
Au 0.1705 21.6848 3.5898
Au 0.1720 46.5464 38.0410
Au 0.1857 48.1366 31.7923
Au 0.1976 10.2873 35.6193
Au 0.1995 49.7267 25.5436
Au 0.2012 11.4847 8.1377
Au 0.2032 28.8097 28.7108
Au 0.2068 30.0072 1.2293
Au 0.2132 51.3169 19.2949
Au 0.2222 70.8913 34.2562
Au 0.2269 52.9070 13.0462
Au 0.2319 1.2847 12.6857
Au 0.2339 18.6097 33.2588
Au 0.2360 72.4814 28.0075
Au 0.2375 19.8071 5.7772
Au 0.2395 37.1321 26.3503
Au 0.2407 54.4972 6.7974
Au 0.2497 74.0716 21.7588
Au 0.2544 56.0874 0.5487
Au 0.2634 75.6617 15.5101
Au 0.2645 8.4096 37.8067
Au 0.2682 9.6071 10.3252
Au 0.2701 26.9321 30.8983
Au 0.2738 28.1295 3.4168
Au 0.2772 77.2519 9.2614
Au 0.2855 39.4988 32.2558
Au 0.2909 78.8420 3.0126
Au 0.2992 41.0890 26.0071
Au 0.3008 16.7320 35.4462
Au 0.3045 17.9295 7.9647
Au 0.3064 35.2545 28.5378
Au 0.3129 42.6791 19.7583
Au 0.3220 62.2535 34.7197
Au 0.3267 44.2693 13.5096
Au 0.3315 6.5320 39.9942
Au 0.3351 7.7294 12.5126
Au 0.3357 63.8437 28.4710
Au 0.3371 25.0544 33.0857
Au 0.3404 45.8595 7.2609
Au 0.3407 26.2519 5.6042
Au 0.3494 65.4338 22.2223
Au 0.3542 47.4496 1.0122
Au 0.3632 67.0240 15.9736
Au 0.3678 14.8544 37.6337
Au 0.3714 16.0518 10.1521
Au 0.3734 33.3768 30.7253
Au 0.3769 68.6141 9.7248
Au 0.3770 34.5743 3.2437
Au 0.3907 70.2043 3.4761
Au 0.4021 5.8518 14.7001
Au 0.4041 23.1768 35.2732
Au 0.4077 24.3742 7.7917
Au 0.4217 53.6158 35.1832
Au 0.4348 12.9767 39.8211
Au 0.4355 55.2059 28.9345
Au 0.4384 14.1742 12.3396
Au 0.4402 37.2217 7.7244
Au 0.4404 31.4992 32.9127
Au 0.4440 32.6966 5.4312
Au 0.4492 56.7961 22.6857
Au 0.4539 38.8119 1.4757
Au 0.4582 76.3705 37.6471
Au 0.4629 58.3862 16.4370
Au 0.4691 3.9741 16.8875
Au 0.4711 21.2991 37.4607
Au 0.4720 77.9606 31.3984
Au 0.4747 22.4966 9.9791
Au 0.4767 59.9764 10.1883
Au 0.4857 79.5508 25.1497
Au 0.4904 61.5665 3.9396
Au 0.5054 12.2965 14.5271
Au 0.5073 29.6215 35.1002
Au 0.5110 30.8189 7.6186
Au 0.5215 44.9780 35.6466
Au 0.5352 46.5682 29.3979
Au 0.5360 2.0965 19.0750
Au 0.5380 19.4215 39.6481
Au 0.5416 20.6189 12.1666
Au 0.5489 48.1583 23.1492
Au 0.5580 67.7327 38.1106
Au 0.5627 49.7485 16.9005
Au 0.5717 69.3229 31.8618
Au 0.5723 10.4189 16.7145
Au 0.5743 27.7438 37.2876
Au 0.5764 51.3386 10.6518
Au 0.5779 28.9413 9.8061
Au 0.5854 70.9130 25.6131
Au 0.5902 52.9288 4.4031
Au 0.5992 72.5032 19.3644
Au 0.6030 0.2188 21.2625
Au 0.6086 18.7412 14.3540
Au 0.6106 36.0662 34.9272
Au 0.6129 74.0933 13.1157
Au 0.6267 75.6835 6.8670
Au 0.6349 37.9304 29.8614
Au 0.6393 8.5412 18.9020
Au 0.6404 77.2736 0.6183
Au 0.6413 25.8662 39.4751
Au 0.6449 27.0636 11.9936
Au 0.6487 39.5206 23.6127
Au 0.6577 59.0950 38.5740
Au 0.6624 41.1108 17.3640
Au 0.6715 60.6851 32.3253
Au 0.6756 16.8636 16.5415
Au 0.6762 42.7009 11.1153
Au 0.6776 34.1886 37.1146
Au 0.6812 35.3860 9.6331
Au 0.6852 62.2753 26.0766
Au 0.6899 44.2911 4.8665
Au 0.6989 63.8654 19.8279
Au 0.7063 6.6635 21.0894
Au 0.7119 25.1860 14.1810
Au 0.7127 65.4556 13.5792
Au 0.7264 67.0457 7.3305
Au 0.7402 68.6359 1.0817
Au 0.7426 14.9859 18.7289
Au 0.7445 32.3109 39.3021
Au 0.7482 33.5084 11.8205
Au 0.7575 50.4572 39.0375
Au 0.7712 52.0474 32.7888
Au 0.7732 4.7859 23.2769
Au 0.7788 23.3083 16.3685
Au 0.7849 53.6375 26.5401
Au 0.7987 55.2277 20.2914
Au 0.8077 74.8021 35.2527
Au 0.8095 13.1083 20.9164
Au 0.8124 56.8178 14.0427
Au 0.8151 31.6307 14.0080
Au 0.8214 76.3922 29.0040
Au 0.8262 58.4080 7.7939
Au 0.8352 77.9824 22.7553
Au 0.8399 59.9981 1.5452
Au 0.8402 2.9082 25.4643
Au 0.8458 21.4307 18.5559
Au 0.8489 79.5725 16.5066
Au 0.8572 41.8195 39.5010
Au 0.8709 43.4096 33.2523
Au 0.8765 11.2306 23.1039
Au 0.8821 29.7531 16.1954
Au 0.8847 44.9998 27.0036
Au 0.8984 46.5899 20.7548
Au 0.9072 1.0306 27.6518
Au 0.9075 66.1643 35.7162
Au 0.9108 2.2280 0.1703
Au 0.9122 48.1801 14.5061
Au 0.9128 19.5530 20.7434
Au 0.9212 67.7545 29.4675
Au 0.9259 49.7702 8.2574
Au 0.9349 69.3446 23.2188
Au 0.9397 51.3604 2.0087
Au 0.9435 9.3530 25.2913
Au 0.9487 70.9348 16.9700
Au 0.9491 27.8754 18.3829
Au 0.9624 72.5249 10.7213
Au 0.9762 74.1151 4.4726
Au 0.9778 0.3504 2.3577
Au 0.9797 17.6754 22.9308
Au 0.9982 37.9522 21.2183
Au 1.0072 57.5266 36.1797
Au 1.0104 7.4753 27.4788
Au 1.0119 39.5424 14.9696
Au 1.0160 25.9977 20.5704
Au 1.0209 59.1167 29.9309
Au 1.0257 41.1325 8.7209
Au 1.0347 60.7069 23.6822
Au 1.0394 42.7227 2.4722
Au 1.0467 15.7977 25.1183
Au 1.0484 62.2970 17.4335
Au 1.0523 34.3201 18.2099
Au 1.0622 63.8872 11.1848
Au 1.0759 65.4773 4.9361
Au 1.0774 5.5977 29.6662
Au 1.0810 6.7951 2.1847
Au 1.0830 24.1201 22.7578
Au 1.1069 48.8888 36.6431
Au 1.1137 13.9200 27.3058
Au 1.1193 32.4425 20.3973
Au 1.1207 50.4790 30.3944
Au 1.1344 52.0691 24.1457
Au 1.1434 71.6435 39.1071
Au 1.1444 3.7200 31.8537
Au 1.1480 4.9174 4.3722
Au 1.1482 53.6593 17.8970
Au 1.1500 22.2424 24.9453
Au 1.1572 73.2337 32.8583
Au 1.1619 55.2494 11.6483
Au 1.1709 74.8238 26.6096
Au 1.1756 56.8396 5.3996
Au 1.1806 12.0424 29.4932
Au 1.1843 13.2398 2.0117
Au 1.1847 76.4140 20.3609
Au 1.1862 30.5648 22.5848
Au 1.1984 78.0041 14.1122
Au 1.2067 40.2511 37.1066
Au 1.2113 1.8423 34.0411
Au 1.2122 79.5943 7.8635
Au 1.2150 3.0398 6.5596
Au 1.2169 20.3648 27.1327
Au 1.2204 41.8412 30.8579
Au 1.2342 43.4314 24.6092
Au 1.2432 63.0058 39.5705
Au 1.2476 10.1647 31.6807
Au 1.2479 45.0215 18.3605
Au 1.2512 11.3622 4.1991
Au 1.2532 28.6872 24.7722
Au 1.2569 64.5959 33.3218
Au 1.2617 46.6117 12.1118
Au 1.2707 66.1861 27.0731
Au 1.2754 48.2018 5.8630
Au 1.2819 1.1621 8.7471
Au 1.2839 18.4871 29.3202
Au 1.2844 67.7762 20.8244
Au 1.2875 19.6846 1.8386
Au 1.2982 69.3664 14.5757
Au 1.3119 70.9565 8.3270
Au 1.3146 8.2871 33.8681
Au 1.3182 9.4845 6.3866
Au 1.3202 26.8095 26.9597
Au 1.3256 72.5467 2.0782
Au 1.3509 16.6095 31.5076
Au 1.3545 17.8069 4.0261
Au 1.3565 35.1319 24.5992
Au 1.3567 55.9582 33.7853
Au 1.3614 37.9740 12.5752
Au 1.3704 57.5483 27.5366
Au 1.3751 39.5641 6.3265
Au 1.3816 6.4094 36.0556
Au 1.3842 59.1385 21.2879
Au 1.3852 7.6069 8.5740
Au 1.3872 24.9319 29.1472
Au 1.3889 41.1543 0.0778
Au 1.3908 26.1293 1.6656
Au 1.3932 78.7128 36.2492
Au 1.3979 60.7286 15.0391
Au 1.4116 62.3188 8.7904
Au 1.4178 14.7318 33.6951
Au 1.4215 15.9293 6.2136
Au 1.4234 33.2543 26.7867
Au 1.4254 63.9089 2.5417
Au 1.4485 4.5318 38.2430
Au 1.4521 5.7292 10.7615
Au 1.4541 23.0542 31.3346
Au 1.4564 47.3204 34.2488
Au 1.4577 24.2516 3.8531
Au 1.4702 48.9106 28.0000
Au 1.4839 50.5007 21.7513
Au 1.4848 12.8542 35.8826
Au 1.4884 14.0516 8.4010
Au 1.4904 31.3766 28.9741
Au 1.4929 70.0751 36.7127
Au 1.4940 32.5740 1.4926
Au 1.4977 52.0909 15.5026
Au 1.5067 71.6653 30.4640
Au 1.5114 53.6810 9.2539
Au 1.5191 3.8516 12.9490
Au 1.5204 73.2554 24.2153
Au 1.5211 21.1765 33.5221
Au 1.5247 22.3740 6.0405
Au 1.5251 55.2712 3.0052
Au 1.5342 74.8456 17.9665
Au 1.5479 76.4357 11.7178
Au 1.5518 10.9765 38.0700
Au 1.5554 12.1739 10.5885
Au 1.5562 38.6827 34.7122
Au 1.5574 29.4989 31.1616
Au 1.5610 30.6964 3.6800
Au 1.5616 78.0259 5.4691
Au 1.5699 40.2728 28.4635
Au 1.5837 41.8630 22.2148
Au 1.5861 1.9739 15.1364
Au 1.5881 19.2989 35.7095
Au 1.5917 20.4963 8.2280
Au 1.5927 61.4374 37.1762
Au 1.5974 43.4531 15.9661
Au 1.6064 63.0275 30.9274
Au 1.6111 45.0433 9.7174
Au 1.6202 64.6177 24.6787
Au 1.6224 10.2963 12.7759
Au 1.6243 27.6213 33.3490
Au 1.6249 46.6335 3.4687
Au 1.6280 28.8187 5.8675
Au 1.6339 66.2078 18.4300
Au 1.6476 67.7980 12.1813
Au 1.6531 0.0962 17.3239
Au 1.6550 17.4212 37.8970
Au 1.6587 18.6187 10.4154
Au 1.6606 35.9437 30.9886
Au 1.6614 69.3881 5.9326
Au 1.6893 8.4186 14.9634
Au 1.6913 25.7436 35.5365
Au 1.6924 52.7996 37.6396
Au 1.6949 26.9411 8.0550
Au 1.7062 54.3898 31.3909
Au 1.7199 55.9799 25.1422
Au 1.7246 37.9957 3.9321
Au 1.7256 16.7410 12.6029
Au 1.7276 34.0660 33.1760
Au 1.7312 35.2635 5.6945
Au 1.7337 57.5701 18.8935
Au 1.7427 77.1444 33.8548
Au 1.7474 59.1602 12.6448
Au 1.7563 6.5410 17.1508
Au 1.7564 78.7346 27.6061
Au 1.7583 23.8660 37.7240
Au 1.7611 60.7504 6.3961
Au 1.7619 25.0634 10.2424
Au 1.7749 62.3405 0.1473
Au 1.7922 44.1619 38.1031
Au 1.7926 14.8634 14.7904
Au 1.7946 32.1884 35.3635
Au 1.7982 33.3858 7.8819
Au 1.8059 45.7520 31.8544
Au 1.8197 47.3422 25.6057
Au 1.8233 4.6633 19.3383
Au 1.8252 21.9883 39.9114
Au 1.8289 23.1858 12.4299
Au 1.8334 48.9323 19.3570
Au 1.8424 68.5067 34.3183
Au 1.8471 50.5225 13.1082
Au 1.8562 70.0969 28.0696
Au 1.8596 12.9857 16.9778
Au 1.8609 52.1126 6.8595
Au 1.8615 30.3107 37.5509
Au 1.8652 31.5081 10.0694
Au 1.8699 71.6870 21.8209
Au 1.8746 53.7028 0.6108
Au 1.8836 73.2772 15.5722
Au 1.8902 2.7857 21.5258
Au 1.8958 21.3081 14.6173
Au 1.8974 74.8673 9.3235
Au 1.9111 76.4575 3.0747
Au 1.9194 38.7044 26.0691
Au 1.9265 11.1081 19.1653
Au 1.9285 28.4331 39.7384
Au 1.9321 29.6305 12.2569
Au 1.9331 40.2946 19.8204
Au 1.9422 59.8690 34.7818
Au 1.9469 41.8847 13.5717
Au 1.9559 61.4591 28.5331
Au 1.9572 0.9080 23.7132
Au 1.9606 43.4749 7.3230
Au 1.9628 19.4304 16.8048
Au 1.9648 36.7554 37.3779
Au 1.9697 63.0493 22.2844
Au 1.9744 45.0651 1.0743
Au 1.9834 64.6394 16.0356
Au 1.9935 9.2304 21.3527
Au 1.9971 66.2296 9.7869
Au 1.9991 27.7528 14.4443
Au 2.0109 67.8197 3.5382
Au 2.0298 17.5528 18.9922
Au 2.0318 34.8778 39.5654
Au 2.0354 36.0752 12.0838
Au 2.0419 51.2312 35.2453
Au 2.0557 52.8214 28.9965
Au 2.0605 7.3527 23.5402
Au 2.0661 25.8752 16.6318
Au 2.0694 54.4115 22.7478
Au 2.0784 73.9859 37.7092
Au 2.0831 56.0017 16.4991
Au 2.0922 75.5760 31.4605
Au 2.0967 15.6751 21.1797
Au 2.0969 57.5918 10.2504
Au 2.1023 34.1976 14.2713
Au 2.1059 77.1662 25.2117
Au 2.1106 59.1820 4.0017
Au 2.1196 78.7564 18.9630
Au 2.1274 5.4751 25.7276
Au 2.1330 23.9975 18.8192
Au 2.1417 42.5935 35.7087
Au 2.1554 44.1836 29.4600
Au 2.1637 13.7975 23.3672
Au 2.1691 45.7738 23.2113
Au 2.1693 32.3199 16.4587
Au 2.1782 65.3482 38.1726
Au 2.1829 47.3639 16.9626
Au 2.1919 66.9383 31.9239
Au 2.1944 3.5974 27.9151
Au 2.1966 48.9541 10.7139
Au 2.1980 4.7949 0.4336
Au 2.2000 22.1199 21.0067
Au 2.2057 68.5285 25.6752
Au 2.2104 50.5442 4.4652
Au 2.2194 70.1186 19.4265
Au 2.2307 11.9198 25.5546
Au 2.2331 71.7088 13.1778
Au 2.2363 30.4423 18.6462
Au 2.2469 73.2989 6.9291
Au 2.2606 74.8891 0.6804
Au 2.2614 1.7198 30.1026
Au 2.2650 2.9172 2.6210
Au 2.2670 20.2422 23.1941
Au 2.2779 56.7104 38.6361
Au 2.2826 38.7262 17.4261
Au 2.2917 58.3006 32.3874
Au 2.2964 40.3163 11.1773
Au 2.2977 10.0422 27.7421
Au 2.3013 11.2396 0.2605
Au 2.3033 28.5646 20.8337
Au 2.3054 59.8907 26.1387
Au 2.3101 41.9065 4.9286
Au 2.3191 61.4809 19.8900
Au 2.3320 1.0396 4.8085
Au 2.3329 63.0710 13.6413
Au 2.3339 18.3646 25.3816
Au 2.3395 36.8870 18.4732
Au 2.3466 64.6612 7.3926
Au 2.3604 66.2513 1.1438
Au 2.3646 8.1645 29.9295
Au 2.3682 9.3620 2.4480
Au 2.3702 26.6870 23.0211
Au 2.3777 48.0727 39.0996
Au 2.3914 49.6628 32.8509
Au 2.4009 16.4869 27.5690
Au 2.4045 17.6843 0.0875
Au 2.4051 51.2530 26.6022
Au 2.4065 35.0093 20.6606
Au 2.4189 52.8431 20.3535
Au 2.4279 72.4175 35.3148
Au 2.4316 6.2869 32.1170
Au 2.4326 54.4333 14.1047
Au 2.4352 7.4843 4.6355
Au 2.4372 24.8093 25.2086
Au 2.4416 74.0077 29.0661
Au 2.4464 56.0234 7.8560
Au 2.4554 75.5978 22.8174
Au 2.4601 57.6136 1.6073
Au 2.4679 14.6092 29.7565
Au 2.4691 77.1880 16.5687
Au 2.4715 15.8067 2.2750
Au 2.4735 33.1317 22.8481
Au 2.4774 39.4349 39.5631
Au 2.4829 78.7781 10.3199
Au 2.4912 41.0251 33.3144
Au 2.4986 4.4092 34.3044
Au 2.5022 5.6066 6.8229
Au 2.5042 22.9316 27.3960
Au 2.5049 42.6152 27.0656
Au 2.5186 44.2054 20.8169
Au 2.5277 63.7798 35.7783
Au 2.5324 45.7955 14.5682
Au 2.5348 12.7316 31.9440
Au 2.5385 13.9290 4.4624
Au 2.5404 31.2540 25.0355
Au 2.5414 65.3699 29.5296
Au 2.5461 47.3857 8.3195
Au 2.5551 66.9601 23.2808
Au 2.5599 48.9758 2.0708
Au 2.5655 2.5315 36.4919
Au 2.5689 68.5502 17.0321
Au 2.5692 3.7290 9.0104
Au 2.5711 21.0540 29.5835
Au 2.5748 22.2514 2.1019
Au 2.5826 70.1404 10.7834
Au 2.5964 71.7305 4.5347
Au 2.6018 10.8539 34.1314
Au 2.6054 12.0514 6.6499
Au 2.6074 29.3764 27.2230
Au 2.6274 55.1420 36.2417
Au 2.6325 0.6539 38.6794
Au 2.6361 1.8513 11.1978
Au 2.6381 19.1763 31.7709
Au 2.6411 56.7322 29.9930
Au 2.6417 20.3738 4.2894
Au 2.6459 38.7479 8.7830
Au 2.6549 58.3223 23.7443
Au 2.6596 40.3381 2.5343
Au 2.6639 77.8967 38.7057
Au 2.6686 59.9125 17.4956
Au 2.6688 8.9763 36.3189
Au 2.6724 10.1737 8.8373
Au 2.6744 27.4987 29.4105
Au 2.6776 79.4868 32.4570
Au 2.6780 28.6962 1.9289
Au 2.6824 61.5026 11.2469
Au 2.6961 63.0928 4.9982
Au 2.7051 17.2987 33.9584
Au 2.7087 18.4961 6.4769
Au 2.7107 35.8211 27.0500
Au 2.7271 46.5043 36.7052
Au 2.7357 7.0986 38.5063
Au 2.7394 8.2961 11.0248
Au 2.7409 48.0944 30.4565
Au 2.7413 25.6211 31.5979
Au 2.7450 26.8185 4.1164
Au 2.7546 49.6846 24.2078
Au 2.7637 69.2589 39.1691
Au 2.7684 51.2747 17.9591
Au 2.7720 15.4210 36.1459
Au 2.7757 16.6185 8.6643
Au 2.7774 70.8491 32.9204
Au 2.7776 33.9435 29.2374
Au 2.7813 35.1409 1.7559
Au 2.7821 52.8649 11.7104
Au 2.7911 72.4393 26.6717
Au 2.7959 54.4550 5.4617
Au 2.8049 74.0294 20.4230
Au 2.8063 6.4184 13.2123
Au 2.8083 23.7434 33.7854
Au 2.8119 24.9408 6.3038
Au 2.8186 75.6196 14.1743
Au 2.8324 77.2097 7.9256
Au 2.8390 13.5434 38.3333
Au 2.8406 39.4567 30.9200
Au 2.8426 14.7408 10.8518
Au 2.8446 32.0658 31.4249
Au 2.8461 78.7999 1.6769
Au 2.8482 33.2632 3.9433
Au 2.8544 41.0468 24.6713
Au 2.8634 60.6212 39.6326
Au 2.8681 42.6370 18.4226
Au 2.8733 4.5408 15.3997
Au 2.8753 21.8658 35.9728
Au 2.8771 62.2114 33.3839
Au 2.8789 23.0632 8.4913
Au 2.8819 44.2271 12.1738
Au 2.8909 63.8015 27.1352
Au 2.8956 45.8173 5.9251
Au 2.9046 65.3917 20.8865
Au 2.9096 12.8631 13.0392
Au 2.9116 30.1881 33.6123
Au 2.9152 31.3856 6.1308
Au 2.9184 66.9818 14.6378
Au 2.9321 68.5720 8.3890
Au 2.9403 2.6631 17.5872
Au 2.9422 19.9881 38.1603
Au 2.9458 70.1621 2.1403
Au 2.9459 21.1855 10.6787
Au 2.9766 10.9855 15.2267
Au 2.9769 53.5736 33.8474
Au 2.9785 28.3105 35.7998
Au 2.9822 29.5079 8.3183
Au 2.9906 55.1638 27.5987
Au 3.0044 56.7539 21.3499
Au 3.0072 0.7854 19.7746
Au 3.0091 38.7697 0.1399
Au 3.0128 19.3079 12.8662
Au 3.0134 76.3283 36.3113
Au 3.0148 36.6329 33.4393
Au 3.0181 58.3441 15.1012
Au 3.0271 77.9184 30.0626
Au 3.0319 59.9342 8.8525
Au 3.0409 79.5086 23.8139
Au 3.0435 9.1078 17.4141
Au 3.0455 26.4328 37.9873
Au 3.0456 61.5244 2.6038
Au 3.0491 27.6303 10.5057
Au 3.0766 44.9359 34.3108
Au 3.0798 17.4302 15.0537
Au 3.0818 34.7552 35.6268
Au 3.0854 35.9527 8.1452
Au 3.0904 46.5260 28.0621
Au 3.1041 48.1162 21.8134
Au 3.1105 7.2302 19.6016
Au 3.1131 67.6905 36.7748
Au 3.1161 25.7526 12.6932
Au 3.1179 49.7063 15.5647
Au 3.1269 69.2807 30.5261
Au 3.1316 51.2965 9.3160
Au 3.1406 70.8709 24.2773
Au 3.1453 52.8866 3.0673
Au 3.1468 15.5526 17.2411
Au 3.1488 32.8776 37.8142
Au 3.1524 34.0750 10.3327
Au 3.1544 72.4610 18.0286
Au 3.1681 74.0512 11.7799
Au 3.1775 5.3525 21.7891
Au 3.1818 75.6413 5.5312
Au 3.1831 23.8750 14.8806
Au 3.2039 39.4784 22.2769
Au 3.2129 59.0528 37.2382
Au 3.2137 13.6749 19.4286
Au 3.2176 41.0686 16.0282
Au 3.2194 32.1974 12.5201
Au 3.2266 60.6430 30.9895
Au 3.2313 42.6587 9.7795
Au 3.2404 62.2331 24.7408
Au 3.2444 3.4749 23.9765
Au 3.2451 44.2489 3.5308
Au 3.2500 21.9973 17.0681
Au 3.2541 63.8233 18.4921
Au 3.2679 65.4134 12.2434
Au 3.2807 11.7973 21.6160
Au 3.2816 67.0036 5.9947
Au 3.2863 30.3197 14.7076
Au 3.3114 1.5972 26.1640
Au 3.3126 50.4151 37.7017
Au 3.3170 20.1197 19.2555
Au 3.3190 37.4446 39.8287
Au 3.3264 52.0052 31.4530
Au 3.3401 53.5954 25.2043
Au 3.3477 9.9196 23.8035
Au 3.3533 28.4420 16.8951
Au 3.3539 55.1855 18.9556
Au 3.3629 74.7599 33.9169
Au 3.3676 56.7757 12.7069
Au 3.3766 76.3500 27.6682
Au 3.3813 58.3658 6.4581
Au 3.3820 0.9170 0.8699
Au 3.3840 18.2420 21.4430
Au 3.3896 36.7644 14.5346
Au 3.3904 77.9402 21.4195
Au 3.3951 59.9560 0.2094
Au 3.4041 79.5304 15.1708
Au 3.4124 41.7773 38.1652
Au 3.4147 8.0419 25.9909
Au 3.4203 26.5644 19.0825
Au 3.4261 43.3675 31.9165
Au 3.4399 44.9576 25.6678
Au 3.4509 16.3643 23.6305
Au 3.4536 46.5478 19.4190
Au 3.4565 34.8868 16.7220
Au 3.4626 66.1221 34.3804
Au 3.4673 48.1379 13.1703
Au 3.4764 67.7123 28.1317
Au 3.4811 49.7281 6.9216
Au 3.4816 6.1643 28.1784
Au 3.4852 7.3617 0.6969
Au 3.4872 24.6867 21.2700
Au 3.4901 69.3025 21.8830
Au 3.4948 51.3182 0.6729
Au 3.5038 70.8926 15.6343
Au 3.5176 72.4828 9.3855
Au 3.5179 14.4867 25.8179
Au 3.5235 33.0091 18.9095
Au 3.5313 74.0729 3.1368
Au 3.5486 4.2866 30.3659
Au 3.5522 5.4841 2.8843
Au 3.5542 22.8091 23.4574
Au 3.5624 57.4844 34.8439
Au 3.5671 39.5002 13.6338
Au 3.5761 59.0746 28.5952
Au 3.5808 41.0903 7.3851
Au 3.5849 12.6090 28.0054
Au 3.5885 13.8065 0.5238
Au 3.5899 60.6647 22.3464
Au 3.5905 31.1315 21.0970
Au 3.5946 42.6805 1.1364
Au 3.6036 62.2549 16.0977
Au 3.6156 2.4090 32.5533
Au 3.6173 63.8450 9.8490
Au 3.6192 3.6064 5.0718
Au 3.6212 20.9314 25.6449
Au 3.6311 65.4352 3.6003
Au 3.6518 10.7314 30.1928
Au 3.6555 11.9288 2.7113
Au 3.6574 29.2538 23.2844
Au 3.6621 48.8467 35.3073
Au 3.6759 50.4368 29.0586
Au 3.6825 0.5313 34.7408
Au 3.6862 1.7288 7.2592
Au 3.6881 19.0538 27.8323
Au 3.6896 52.0270 22.8099
Au 3.6918 20.2512 0.3508
Au 3.6937 37.5762 20.9239
Au 3.6986 71.6013 37.7713
Au 3.7033 53.6171 16.5612
Au 3.7124 73.1915 31.5225
Au 3.7171 55.2073 10.3125
Au 3.7188 8.8537 32.3803
Au 3.7224 10.0512 4.8987
Au 3.7244 27.3762 25.4719
Au 3.7261 74.7816 25.2738
Au 3.7308 56.7974 4.0638
Au 3.7398 76.3718 19.0251
Au 3.7536 77.9620 12.7764
Au 3.7551 17.1761 30.0198
Au 3.7587 18.3735 2.5383
Au 3.7607 35.6985 23.1114
Au 3.7619 40.2089 35.7708
Au 3.7673 79.5521 6.5277
Au 3.7756 41.7991 29.5221
Au 3.7858 6.9761 34.5677
Au 3.7893 43.3892 23.2734
Au 3.7894 8.1735 7.0862
Au 3.7914 25.4985 27.6593
Au 3.7950 26.6959 0.1778
Au 3.7984 62.9636 38.2347
Au 3.8031 44.9794 17.0247
Au 3.8121 64.5537 31.9860
Au 3.8168 46.5695 10.7760
Au 3.8221 15.2985 32.2073
Au 3.8257 16.4959 4.7257
Au 3.8259 66.1439 25.7373
Au 3.8277 33.8209 25.2988
Au 3.8306 48.1597 4.5272
Au 3.8396 67.7341 19.4886
Au 3.8527 5.0984 36.7552
Au 3.8533 69.3242 13.2399
Au 3.8564 6.2958 9.2737
Au 3.8583 23.6208 29.8468
Au 3.8620 24.8183 2.3652
Au 3.8671 70.9144 6.9912
Au 3.8808 72.5045 0.7425
Au 3.8890 13.4208 34.3947
Au 3.8927 14.6182 6.9132
Au 3.8946 31.9432 27.4863
Au 3.8981 54.3258 38.6982
Au 3.8983 33.1407 0.0048
Au 3.9119 55.9160 32.4495
Au 3.9166 37.9318 11.2394
Au 3.9197 3.2208 38.9427
Au 3.9233 4.4182 11.4611
Au 3.9253 21.7432 32.0342
Au 3.9256 57.5062 26.2008
Au 3.9289 22.9406 4.5527
Au 3.9303 39.5219 4.9907
Au 3.9393 59.0963 19.9521
Au 3.9484 78.6707 34.9134
Au 3.9531 60.6865 13.7034
Au 3.9560 11.5431 36.5822
Au 3.9596 12.7406 9.1006
Au 3.9616 30.0656 29.6738
Au 3.9652 31.2630 2.1922
Au 3.9668 62.2766 7.4546
Au 3.9806 63.8668 1.2059
Au 3.9903 2.5405 13.6486
Au 3.9923 19.8655 34.2217
Au 3.9959 21.0630 6.7402
Au 3.9979 45.6881 39.1617
Au 3.9979 38.3880 27.3133
Au 4.0116 47.2783 32.9130
Au 4.0230 9.6655 38.7696
Au 4.0253 48.8684 26.6643
Au 4.0266 10.8629 11.2881
Au 4.0286 28.1879 31.8612
Au 4.0322 29.3854 4.3797
Au 4.0391 50.4586 20.4155
Au 4.0481 70.0329 35.3769
Au 4.0528 52.0487 14.1668
Au 4.0573 0.6629 15.8360
Au 4.0593 17.9879 36.4091
Au 4.0619 71.6231 29.1282
Au 4.0629 19.1853 8.9276
Au 4.0649 36.5103 29.5007
Au 4.0666 53.6389 7.9181
Au 4.0756 73.2132 22.8795
Au 4.0803 55.2290 1.6694
Au 4.0893 74.8034 16.6307
Au 4.0936 8.9853 13.4756
Au 4.0955 26.3103 34.0487
Au 4.0992 27.5077 6.5671
Au 4.1031 76.3936 10.3820
Au 4.1168 77.9837 4.1333
Au 4.1251 40.2307 27.1277
Au 4.1262 16.1102 38.5966
Au 4.1298 17.3077 11.1151
Au 4.1318 34.6327 31.6882
Au 4.1354 35.8301 4.2066
Au 4.1388 41.8208 20.8790
Au 4.1479 61.3952 35.8404
Au 4.1526 43.4110 14.6303
Au 4.1605 7.1076 15.6630
Au 4.1616 62.9853 29.5916
Au 4.1625 24.4326 36.2361
Au 4.1661 25.6301 8.7546
Au 4.1663 45.0011 8.3816
Au 4.1753 64.5755 23.3429
Au 4.1801 46.5913 2.1329
Au 4.1891 66.1657 17.0942
Au 4.1968 15.4300 13.3025
Au 4.1988 32.7550 33.8756
Au 4.2024 33.9524 6.3941
Au 4.2028 67.7558 10.8455
Au 4.2166 69.3460 4.5968
Au 4.2275 5.2300 17.8505
Au 4.2295 22.5550 38.4236
Au 4.2331 23.7524 10.9420
Au 4.2476 52.7574 36.3038
Au 4.2613 54.3476 30.0551
Au 4.2638 13.5524 15.4900
Au 4.2658 30.8773 36.0631
Au 4.2694 32.0748 8.5816
Au 4.2751 55.9378 23.8064
Au 4.2798 37.9535 2.5963
Au 4.2841 75.5121 38.7678
Au 4.2888 57.5279 17.5577
Au 4.2945 3.3523 20.0379
Au 4.2979 77.1023 32.5190
Au 4.3001 21.8747 13.1295
Au 4.3020 39.1997 33.7026
Au 4.3026 59.1181 11.3090
Au 4.3116 78.6924 26.2703
Au 4.3163 60.7082 5.0603
Au 4.3308 11.6747 17.6774
Au 4.3327 28.9997 38.2506
Au 4.3364 30.1971 10.7690
Au 4.3474 44.1197 36.7673
Au 4.3611 45.7099 30.5186
Au 4.3614 1.4746 22.2254
Au 4.3670 19.9971 15.3170
Au 4.3690 37.3221 35.8901
Au 4.3748 47.3000 24.2699
Au 4.3839 66.8744 39.2312
Au 4.3886 48.8902 18.0212
Au 4.3976 68.4645 32.9825
Au 4.3977 9.7970 19.8649
Au 4.4023 50.4803 11.7725
Au 4.4033 28.3195 12.9565
Au 4.4113 70.0547 26.7338
Au 4.4161 52.0705 5.5237
Au 4.4251 71.6448 20.4851
Au 4.4340 18.1194 17.5044
Au 4.4360 35.4444 38.0775
Au 4.4388 73.2350 14.2364
Au 4.4526 74.8252 7.9877
Au 4.4647 7.9194 22.0524
Au 4.4663 76.4153 1.7389
Au 4.4703 26.4418 15.1439
Au 4.4836 58.2366 39.6947
Au 4.4883 40.2524 18.4846
Au 4.4973 59.8268 33.4460
Au 4.5010 16.2418 19.6919
Au 4.5021 41.8426 12.2359
Au 4.5066 34.7642 12.7834
Au 4.5111 61.4169 27.1973
Au 4.5158 43.4327 5.9872
Au 4.5248 63.0071 20.9486
Au 4.5317 6.0417 24.2398
Au 4.5373 24.5642 17.3314
Au 4.5386 64.5973 14.6998
Au 4.5523 66.1874 8.4511
Au 4.5661 67.7776 2.2024
Au 4.5679 14.3641 21.8793
Au 4.5735 32.8866 14.9709
Au 4.5971 51.1890 33.9095
Au 4.5986 4.1641 26.4273
Au 4.6042 22.6865 19.5188
Au 4.6108 52.7792 27.6607
Au 4.6246 54.3694 21.4120
Au 4.6336 73.9437 36.3734
Au 4.6349 12.4865 24.0668
Au 4.6383 55.9595 15.1633
Au 4.6405 31.0089 17.1584
Au 4.6473 75.5339 30.1247
Au 4.6521 57.5497 8.9146
Au 4.6611 77.1240 23.8760
Au 4.6656 2.2864 28.6147
Au 4.6658 59.1398 2.6659
Au 4.6692 3.4839 1.1332
Au 4.6712 20.8089 21.7063
Au 4.6748 78.7142 17.6272
Au 4.6968 42.5513 34.3729
Au 4.7019 10.6088 26.2542
Au 4.7075 29.1312 19.3458
Au 4.7106 44.1415 28.1242
Au 4.7243 45.7316 21.8755
Au 4.7326 0.4088 30.8022
Au 4.7333 65.3060 36.8369
Au 4.7362 1.6062 3.3206
Au 4.7381 47.3218 15.6268
Au 4.7382 18.9312 23.8938
Au 4.7438 37.4536 16.9853
Au 4.7471 66.8961 30.5881
Au 4.7518 48.9119 9.3781
Au 4.7608 68.4863 24.3394
Au 4.7655 50.5021 3.1294
Au 4.7688 8.7312 28.4417
Au 4.7725 9.9286 0.9602
Au 4.7744 27.2536 21.5333
Au 4.7746 70.0764 18.0907
Au 4.7883 71.6666 11.8420
Au 4.8020 73.2568 5.5933
Au 4.8051 17.0535 26.0812
Au 4.8107 35.5760 19.1728
Au 4.8331 56.6682 37.3003
Au 4.8358 6.8535 30.6292
Au 4.8394 8.0509 3.1476
Au 4.8414 25.3759 23.7207
Au 4.8468 58.2584 31.0516
Au 4.8516 40.2742 9.8416
Au 4.8606 59.8485 24.8029
Au 4.8653 41.8643 3.5928
Au 4.8696 79.4229 39.7643
Au 4.8721 15.1759 28.2687
Au 4.8743 61.4387 18.5542
Au 4.8757 16.3733 0.7871
Au 4.8777 33.6983 21.3602
Au 4.8881 63.0289 12.3055
Au 4.9018 64.6190 6.0568
Au 4.9028 4.9758 32.8166
Au 4.9064 6.1733 5.3351
Au 4.9084 23.4983 25.9082
Au 4.9328 48.0305 37.7638
Au 4.9391 13.2982 30.4561
Au 4.9427 14.4957 2.9746
Au 4.9447 31.8207 23.5477
Au 4.9466 49.6207 31.5151
Au 4.9603 51.2108 25.2664
Au 4.9698 3.0982 35.0041
Au 4.9734 4.2956 7.5225
Au 4.9741 52.8010 19.0177
Au 4.9754 21.6206 28.0956
Au 4.9790 22.8181 0.6141
Au 4.9831 72.3753 33.9790
Au 4.9878 54.3911 12.7689
Au 4.9968 73.9655 27.7303
Au 5.0015 55.9813 6.5202
Au 5.0060 11.4206 32.6436
Au 5.0097 12.6180 5.1620
Au 5.0106 75.5556 21.4816
Au 5.0116 29.9430 25.7352
Au 5.0153 57.5714 0.2715
Au 5.0243 77.1458 15.2329
Au 5.0367 1.2205 37.1915
Au 5.0380 78.7359 8.9842
Au 5.0403 2.4180 9.7100
Au 5.0423 19.7430 30.2831
Au 5.0459 20.9404 2.8016
Au 5.0463 40.9829 31.9786
Au 5.0479 38.2654 23.3747
Au 5.0601 42.5731 25.7298
Au 5.0730 9.5429 34.8310
Au 5.0738 44.1632 19.4811
Au 5.0766 10.7404 7.3495
Au 5.0786 28.0654 27.9226
Au 5.0822 29.2628 0.4411
Au 5.0828 63.7376 34.4425
Au 5.0875 45.7534 13.2324
Au 5.0966 65.3277 28.1938
Au 5.1013 47.3435 6.9837
Au 5.1073 0.5403 11.8974
Au 5.1093 17.8653 32.4706
Au 5.1103 66.9179 21.9451
Au 5.1129 19.0628 4.9890
Au 5.1149 36.3878 25.5621
Au 5.1150 48.9337 0.7350
Au 5.1241 68.5080 15.6963
Au 5.1378 70.0982 9.4476
Au 5.1400 7.6653 37.0185
Au 5.1436 8.8627 9.5370
Au 5.1456 26.1877 30.1101
Au 5.1492 27.3851 2.6285
Au 5.1515 71.6884 3.1989
Au 5.1763 15.9877 34.6580
Au 5.1799 17.1851 7.1765
Au 5.1819 34.5101 27.7496
Au 5.1826 55.0998 34.9060
Au 5.1855 35.7075 0.2681
Au 5.1963 56.6900 28.6572
Au 5.2010 38.7058 7.4472
Au 5.2069 5.7876 39.2060
Au 5.2101 58.2801 22.4085
Au 5.2106 6.9851 11.7244
Au 5.2125 24.3100 32.2975
Au 5.2148 40.2959 1.1985
Au 5.2162 25.5075 4.8160
Au 5.2191 77.8545 37.3699
Au 5.2238 59.8703 16.1598
Au 5.2328 79.4447 31.1212
Au 5.2375 61.4605 9.9111
Au 5.2432 14.1100 36.8455
Au 5.2469 15.3074 9.3639
Au 5.2488 32.6324 29.9371
Au 5.2513 63.0506 3.6624
Au 5.2525 33.8299 2.4555
Au 5.2775 5.1074 13.9119
Au 5.2795 22.4324 34.4850
Au 5.2823 46.4621 35.3694
Au 5.2831 23.6298 7.0035
Au 5.2961 48.0523 29.1207
Au 5.3098 49.6424 22.8720
Au 5.3102 12.2323 39.0329
Au 5.3138 13.4298 11.5514
Au 5.3158 30.7548 32.1245
Au 5.3188 69.2168 37.8334
Au 5.3194 31.9522 4.6430
Au 5.3235 51.2326 16.6233
Au 5.3326 70.8069 31.5846
Au 5.3373 52.8227 10.3746
Au 5.3445 3.2297 16.0993
Au 5.3463 72.3971 25.3359
Au 5.3465 20.5547 36.6724
Au 5.3501 21.7522 9.1909
Au 5.3510 54.4129 4.1259
Au 5.3521 39.0772 29.7640
Au 5.3601 73.9872 19.0872
Au 5.3738 75.5774 12.8385
Au 5.3808 11.5521 13.7388
Au 5.3828 28.8771 34.3120
Au 5.3864 30.0746 6.8304
Au 5.3875 77.1675 6.5898
Au 5.4013 78.7577 0.3411
Au 5.4096 41.0047 23.3355
Au 5.4115 1.3521 18.2868
Au 5.4134 18.6771 38.8599
Au 5.4171 19.8745 11.3784
Au 5.4186 60.5790 38.2968
Au 5.4190 37.1995 31.9515
Au 5.4233 42.5948 17.0868
Au 5.4323 62.1692 32.0481
Au 5.4370 44.1850 10.8380
Au 5.4461 63.7593 25.7994
Au 5.4478 9.6745 15.9263
Au 5.4497 26.9995 36.4994
Au 5.4508 45.7751 4.5893
Au 5.4534 28.1969 9.0179
Au 5.4598 65.3495 19.5507
Au 5.4735 66.9396 13.3020
Au 5.4840 17.9969 13.5658
Au 5.4860 35.3219 34.1389
Au 5.4873 68.5298 7.0533
Au 5.4896 36.5193 6.6574
Au 5.5010 70.1200 0.8045
Au 5.5147 7.7968 18.1138
Au 5.5167 25.1218 38.6869
Au 5.5183 51.9413 38.7603
Au 5.5203 26.3193 11.2053
Au 5.5321 53.5314 32.5116
Au 5.5458 55.1216 26.2629
Au 5.5510 16.1192 15.7533
Au 5.5530 33.4442 36.3264
Au 5.5566 34.6416 8.8449
Au 5.5595 56.7117 20.0142
Au 5.5686 76.2861 34.9755
Au 5.5733 58.3019 13.7654
Au 5.5817 5.9192 20.3012
Au 5.5823 77.8763 28.7268
Au 5.5870 59.8921 7.5167
Au 5.5873 24.4416 13.3928
Au 5.5961 79.4664 22.4781
Au 5.6008 61.4822 1.2680
Au 5.6180 14.2416 17.9407
Au 5.6181 43.3035 39.2238
Au 5.6200 31.5666 38.5139
Au 5.6236 32.7640 11.0323
Au 5.6318 44.8937 32.9751
Au 5.6456 46.4839 26.7263
Au 5.6487 4.0415 22.4887
Au 5.6543 22.5639 15.5803
Au 5.6562 39.8889 36.1534
Au 5.6593 48.0740 20.4776
Au 5.6683 67.6484 35.4390
Au 5.6730 49.6642 14.2289
Au 5.6821 69.2385 29.1903
Au 5.6849 12.3639 20.1282
Au 5.6868 51.2543 7.9802
Au 5.6905 30.8863 13.2198
Au 5.6958 70.8287 22.9415
Au 5.7005 52.8445 1.7315
Au 5.7095 72.4188 16.6928
Au 5.7156 2.1639 24.6761
Au 5.7212 20.6863 17.7677
Au 5.7232 38.0113 38.3408
Au 5.7233 74.0090 10.4441
Au 5.7370 75.5991 4.1954
Au 5.7519 10.4862 22.3157
Au 5.7575 29.0087 15.4072
Au 5.7590 39.4363 20.9411
Au 5.7681 59.0106 35.9025
Au 5.7728 41.0264 14.6924
Au 5.7818 60.6008 29.6537
Au 5.7826 0.2862 26.8636
Au 5.7865 42.6166 8.4437
Au 5.7882 18.8086 19.9552
Au 5.7938 37.3311 13.0467
Au 5.7955 62.1909 23.4050
Au 5.8003 44.2067 2.1950
Au 5.8093 63.7811 17.1563
Au 5.8189 8.6086 24.5031
Au 5.8230 65.3712 10.9076
Au 5.8245 27.1310 17.5947
Au 5.8368 66.9614 4.6589
Au 5.8552 16.9310 22.1426
Au 5.8608 35.4534 15.2342
Au 5.8678 50.3729 36.3659
Au 5.8816 51.9630 30.1172
Au 5.8858 6.7309 26.6906
Au 5.8915 25.2534 19.7821
Au 5.8953 53.5532 23.8685
Au 5.9043 73.1276 38.8298
Au 5.9090 55.1433 17.6198
Au 5.9181 74.7177 32.5811
Au 5.9221 15.0533 24.3301
Au 5.9228 56.7335 11.3711
Au 5.9277 33.5758 17.4217
Au 5.9318 76.3079 26.3324
Au 5.9365 58.3237 5.1224
Au 5.9455 77.8980 20.0837
Au 5.9528 4.8533 28.8780
Au 5.9564 6.0507 1.3965
Au 5.9584 23.3757 21.9696
Au 5.9593 79.4882 13.8350
Au 5.9676 41.7351 36.8294
Au 5.9813 43.3253 30.5807
Au 5.9891 13.1757 26.5175
Au 5.9947 31.6981 19.6091
Au 5.9950 44.9155 24.3320
Au 6.0041 64.4898 39.2933
Au 6.0088 46.5056 18.0833
Au 6.0178 66.0800 33.0446
Au 6.0198 2.9756 31.0655
Au 6.0225 48.0958 11.8345
Au 6.0234 4.1731 3.5839
Au 6.0254 21.4981 24.1571
Au 6.0315 67.6701 26.7959
Au 6.0363 49.6859 5.5858
Au 6.0453 69.2603 20.5472
Au 6.0561 11.2980 28.7050
Au 6.0590 70.8504 14.2985
Au 6.0597 12.4955 1.2235
Au 6.0617 29.8205 21.7966
Au 6.0728 72.4406 8.0497
Au 6.0865 74.0307 1.8010
Au 6.0868 1.0980 33.2529
Au 6.0904 2.2954 5.7714
Au 6.0924 19.6204 26.3445
Au 6.0980 38.1428 19.4361
Au 6.1038 55.8521 39.7568
Au 6.1175 57.4422 33.5081
Au 6.1223 39.4580 12.2980
Au 6.1230 9.4204 30.8925
Au 6.1267 10.6178 3.4109
Au 6.1286 27.9428 23.9840
Au 6.1313 59.0324 27.2594
Au 6.1360 41.0482 6.0493
Au 6.1450 60.6225 21.0106
Au 6.1573 0.4178 7.9589
Au 6.1588 62.2127 14.7619
Au 6.1593 17.7427 28.5320
Au 6.1630 18.9402 1.0504
Au 6.1649 36.2652 21.6235
Au 6.1725 63.8028 8.5132
Au 6.1863 65.3930 2.2645
Au 6.1900 7.5427 33.0799
Au 6.1936 8.7401 5.5984
Au 6.1956 26.0651 26.1715
Au 6.2173 48.8045 33.9716
Au 6.2263 15.8651 30.7194
Au 6.2299 17.0625 3.2379
Au 6.2310 50.3946 27.7228
Au 6.2319 34.3875 23.8110
Au 6.2448 51.9848 21.4741
Au 6.2538 71.5592 36.4355
Au 6.2570 5.6650 35.2674
Au 6.2585 53.5750 15.2254
Au 6.2606 6.8625 7.7858
Au 6.2626 24.1875 28.3589
Au 6.2662 25.3849 0.8774
Au 6.2675 73.1493 30.1868
Au 6.2723 55.1651 8.9767
Au 6.2813 74.7395 23.9380
Au 6.2860 56.7553 2.7280
Au 6.2933 13.9874 32.9069
Au 6.2950 76.3296 17.6893
Au 6.2969 15.1849 5.4253
Au 6.2989 32.5099 25.9985
Au 6.3088 77.9198 11.4406
Au 6.3225 79.5099 5.1919
Au 6.3239 3.7874 37.4548
Au 6.3276 4.9848 9.9733
Au 6.3295 22.3098 30.5464
Au 6.3308 41.7569 28.1863
Au 6.3332 23.5073 3.0649
Au 6.3445 43.3471 21.9376
Au 6.3535 62.9214 36.8989
Au 6.3583 44.9372 15.6889
Au 6.3602 12.1098 35.0943
Au 6.3639 13.3072 7.6128
Au 6.3658 30.6322 28.1859
Au 6.3673 64.5116 30.6502
Au 6.3695 31.8297 0.7044
Au 6.3720 46.5274 9.4402
Au 6.3810 66.1017 24.4015
Au 6.3857 48.1175 3.1915
Au 6.3909 1.9097 39.6423
Au 6.3945 3.1072 12.1607
Au 6.3948 67.6919 18.1528
Au 6.3965 20.4322 32.7339
Au 6.4001 21.6296 5.2523
Au 6.4021 38.9546 25.8254
Au 6.4085 69.2820 11.9041
Au 6.4223 70.8722 5.6554
Au 6.4272 10.2321 37.2818
Au 6.4308 11.4296 9.8003
Au 6.4328 28.7546 30.3734
Au 6.4364 29.9520 2.8918
Au 6.4533 54.2837 37.3624
Au 6.4615 1.2295 14.3482
Au 6.4635 18.5545 34.9213
Au 6.4670 55.8738 31.1137
Au 6.4671 19.7520 7.4398
Au 6.4691 37.0770 28.0129
Au 6.4808 57.4640 24.8650
Au 6.4855 39.4798 3.6549
Au 6.4898 77.0384 39.8263
Au 6.4942 8.3545 39.4693
Au 6.4945 59.0541 18.6163
Au 6.4978 9.5519 11.9877
Au 6.4998 26.8769 32.5608
Au 6.5034 28.0743 5.0793
Au 6.5035 78.6285 33.5776
Au 6.5083 60.6443 12.3676
Au 6.5220 62.2344 6.1188
Au 6.5304 16.6769 37.1088
Au 6.5341 17.8743 9.6272
Au 6.5361 35.1993 30.2003
Au 6.5397 36.3967 2.7188
Au 6.5530 45.6459 37.8259
Au 6.5648 7.6743 14.1752
Au 6.5667 24.9993 34.7483
Au 6.5668 47.2361 31.5772
Au 6.5704 26.1967 7.2668
Au 6.5805 48.8262 25.3285
Au 6.5943 50.4164 19.0797
Au 6.5974 14.7992 39.2962
Au 6.6010 15.9966 11.8147
Au 6.6030 33.3216 32.3878
Au 6.6033 69.9908 34.0411
Au 6.6066 34.5191 4.9063
Au 6.6080 52.0066 12.8310
Au 6.6170 71.5809 27.7924
Au 6.6217 53.5967 6.5823
Au 6.6308 73.1711 21.5437
Au 6.6317 5.7966 16.3626
Au 6.6337 23.1216 36.9357
Au 6.6355 55.1869 0.3336
Au 6.6373 24.3190 9.4542
Au 6.6445 74.7612 15.2950
Au 6.6583 76.3514 9.0462
Au 6.6680 14.1190 14.0021
Au 6.6700 31.4440 34.5753
Au 6.6720 77.9415 2.7975
Au 6.6736 32.6414 7.0937
Au 6.6940 41.7787 19.5432
Au 6.6987 3.9189 18.5501
Au 6.7007 21.2439 39.1232
Au 6.7030 61.3530 34.5046
Au 6.7043 22.4414 11.6417
Au 6.7063 39.7664 32.2148
Au 6.7078 43.3688 13.2945
Au 6.7168 62.9432 28.2559
Au 6.7215 44.9590 7.0458
Au 6.7305 64.5333 22.0071
Au 6.7350 12.2413 16.1896
Au 6.7352 46.5491 0.7971
Au 6.7370 29.5663 36.7627
Au 6.7406 30.7638 9.2812
Au 6.7443 66.1235 15.7584
Au 6.7580 67.7136 9.5097
Au 6.7657 2.0413 20.7375
Au 6.7713 20.5637 13.8291
Au 6.7717 69.3038 3.2610
Au 6.7732 37.8887 34.4022
Au 6.8019 10.3637 18.3771
Au 6.8028 52.7153 34.9680
Au 6.8039 27.6887 38.9502
Au 6.8076 28.8861 11.4686
Au 6.8165 54.3054 28.7193
Au 6.8303 55.8956 22.4706
Au 6.8326 0.1636 22.9250
Au 6.8382 18.6861 16.0166
Au 6.8393 75.4700 37.4320
Au 6.8402 36.0111 36.5897
Au 6.8438 37.2085 9.1082
Au 6.8440 57.4857 16.2219
Au 6.8530 77.0601 31.1833
Au 6.8577 59.0759 9.9732
Au 6.8668 78.6503 24.9345
Au 6.8689 8.4860 20.5645
Au 6.8715 60.6660 3.7245
Au 6.8745 27.0085 13.6561
Au 6.9002 29.2267 0.0672
Au 6.9025 44.0775 35.4315
Au 6.9052 16.8084 18.2040
Au 6.9072 34.1334 38.7772
Au 6.9108 35.3309 11.2956
Au 6.9163 45.6677 29.1828
Au 6.9300 47.2578 22.9341
Au 6.9359 6.6084 22.7520
Au 6.9390 66.8322 37.8954
Au 6.9415 25.1308 15.8436
Au 6.9438 48.8480 16.6854
Au 6.9528 68.4224 31.6467
Au 6.9575 50.4382 10.4367
Au 6.9665 70.0125 25.3980
Au 6.9712 52.0283 4.1879
Au 6.9722 14.9308 20.3915
Au 6.9778 33.4532 13.4831
Au 6.9803 71.6027 19.1493
Au 6.9940 73.1928 12.9006
Au 7.0029 4.7307 24.9394
Au 7.0077 74.7830 6.6519
Au 7.0085 23.2532 18.0310
Au 7.0104 40.5781 38.6041
Au 7.0215 76.3731 0.4032
Au 7.0388 58.1945 38.3589
Au 7.0391 13.0531 22.5790
Au 7.0435 40.2103 17.1488
Au 7.0447 31.5755 15.6705
Au 7.0525 59.7846 32.1102
Au 7.0572 41.8004 10.9001
Au 7.0663 61.3748 25.8615
Au 7.0698 2.8531 27.1269
Au 7.0710 43.3906 4.6514
Au 7.0754 21.3755 20.2185
Au 7.0800 62.9649 19.6128
Au 7.0937 64.5551 13.3641
Au 7.1061 11.1754 24.7664
Au 7.1075 66.1452 7.1153
Au 7.1117 29.6979 17.8580
Au 7.1212 67.7354 0.8666
Au 7.1368 0.9754 29.3143
Au 7.1385 49.5567 38.8224
Au 7.1404 2.1728 1.8328
Au 7.1424 19.4978 22.4059
Au 7.1480 38.0203 15.4975
Au 7.1523 51.1469 32.5737
Au 7.1660 52.7370 26.3250
Au 7.1731 9.2978 26.9539
Au 7.1787 27.8202 20.0454
Au 7.1798 54.3272 20.0762
Au 7.1888 73.9016 35.0376
Au 7.1935 55.9173 13.8275
Au 7.2025 75.4917 28.7889
Au 7.2072 57.5075 7.5788
Au 7.2074 0.2952 4.0203
Au 7.2094 17.6202 24.5934
Au 7.2150 36.1426 17.6850
Au 7.2163 77.0819 22.5402
Au 7.2210 59.0977 1.3301
Au 7.2300 78.6720 16.2914
Au 7.2400 7.4201 29.1413
Au 7.2437 8.6176 1.6598
Au 7.2456 25.9426 22.2329
Au 7.2520 42.5091 33.0371
Au 7.2658 44.0993 26.7884
Au 7.2763 15.7425 26.7808
Au 7.2795 45.6894 20.5397
Au 7.2819 34.2650 19.8724
Au 7.2885 65.2638 35.5011
Au 7.2932 47.2796 14.2910
Au 7.3023 66.8540 29.2524
Au 7.3070 48.8698 8.0423
Au 7.3070 5.5425 31.3288
Au 7.3106 6.7399 3.8472
Au 7.3126 24.0649 24.4204
Au 7.3160 68.4441 23.0036
Au 7.3207 50.4599 1.7936
Au 7.3297 70.0343 16.7549
Au 7.3433 13.8649 28.9683
Au 7.3435 71.6244 10.5062
Au 7.3469 15.0623 1.4868
Au 7.3489 32.3873 22.0599
Au 7.3572 73.2146 4.2575
Au 7.3740 3.6648 33.5162
Au 7.3776 4.8623 6.0347
Au 7.3796 22.1873 26.6078
Au 7.3883 56.6261 35.9645
Au 7.4020 58.2162 29.7158
Au 7.4067 40.2320 8.5058
Au 7.4103 11.9872 31.1558
Au 7.4139 13.1847 3.6742
Au 7.4157 59.8064 23.4671
Au 7.4159 30.5097 24.2473
Au 7.4205 41.8222 2.2570
Au 7.4248 79.3808 38.4285
Au 7.4295 61.3965 17.2184
Au 7.4409 1.7872 35.7037
Au 7.4432 62.9867 10.9697
Au 7.4446 2.9846 8.2222
Au 7.4465 20.3096 28.7953
Au 7.4502 21.5070 1.3137
Au 7.4521 38.8320 21.8868
Au 7.4570 64.5768 4.7210
Au 7.4772 10.1096 33.3432
Au 7.4809 11.3070 5.8617
Au 7.4828 28.6320 26.4348
Au 7.4880 47.9883 36.4280
Au 7.5018 49.5785 30.1793
Au 7.5115 1.1070 10.4096
Au 7.5135 18.4320 30.9827
Au 7.5155 51.1686 23.9306
Au 7.5171 19.6294 3.5012
Au 7.5191 36.9544 24.0743
Au 7.5245 70.7430 38.8919
Au 7.5292 52.7588 17.6819
Au 7.5383 72.3332 32.6432
Au 7.5430 54.3489 11.4332
Au 7.5442 8.2319 35.5307
Au 7.5478 9.4293 8.0491
Au 7.5498 26.7543 28.6222
Au 7.5520 73.9233 26.3945
Au 7.5567 55.9391 5.1844
Au 7.5657 75.5135 20.1458
Au 7.5795 77.1036 13.8971
Au 7.5805 16.5543 33.1702
Au 7.5841 17.7517 5.6886
Au 7.5861 35.0767 26.2618
Au 7.5932 78.6938 7.6484
Au 7.6015 40.9407 30.6428
Au 7.6112 6.3543 37.7181
Au 7.6148 7.5517 10.2366
Au 7.6152 42.5309 24.3941
Au 7.6168 24.8767 30.8097
Au 7.6204 26.0741 3.3282
Au 7.6243 62.1053 39.3554
Au 7.6290 44.1210 18.1453
Au 7.6380 63.6954 33.1067
Au 7.6427 45.7112 11.8966
Au 7.6475 14.6766 35.3576
Au 7.6511 15.8741 7.8761
Au 7.6517 65.2856 26.8580
Au 7.6531 33.1991 28.4492
Au 7.6542 4.6014 0.2232
Au 7.6565 47.3014 5.6479
Au 7.6655 66.8757 20.6093
Au 7.6781 4.4766 39.9056
Au 7.6792 68.4659 14.3605
Au 7.6818 5.6740 12.4240
Au 7.6837 22.9990 32.9972
Au 7.6874 24.1965 5.5156
Au 7.6930 70.0560 8.1118
Au 7.7067 71.6462 1.8631
Au 7.7144 12.7990 37.5451
Au 7.7180 13.9964 10.0636
Au 7.7200 31.3214 30.6367
Au 7.7236 32.5189 3.1551
Au 7.7240 53.4675 39.8189
Au 7.7378 55.0577 33.5702
Au 7.7487 3.7964 14.6115
Au 7.7507 21.1214 35.1846
Au 7.7515 56.6478 27.3215
Au 7.7543 22.3188 7.7031
Au 7.7563 39.6438 28.2762
Au 7.7652 58.2380 21.0727
Au 7.7743 77.8124 36.0341
Au 7.7790 59.8281 14.8240
Au 7.7814 10.9213 39.7326
Au 7.7850 12.1188 12.2510
Au 7.7870 29.4438 32.8241
Au 7.7880 79.4025 29.7854
Au 7.7906 30.6412 5.3426
Au 7.7927 61.4183 8.5753
Au 7.8065 63.0084 2.3266
Au 7.8157 1.9187 16.7990
Au 7.8177 19.2437 37.3721
Au 7.8213 20.4412 9.8905
Au 7.8233 37.7662 30.4636
Au 7.8375 46.4199 34.0336
Au 7.8512 48.0101 27.7849
Au 7.8520 10.2411 14.4385
Au 7.8540 27.5661 35.0116
Au 7.8576 28.7636 7.5300
Au 7.8596 13.2224 0.9095
Au 7.8650 49.6002 21.5362
Au 7.8740 69.1746 36.4976
Au 7.8787 51.1904 15.2875
Au 7.8827 0.0411 18.9864
Au 7.8846 17.3661 39.5595
Au 7.8877 70.7648 30.2488
Au 7.8883 18.5635 12.0780
Au 7.8902 35.8885 32.6511
Au 7.8925 52.7805 9.0388
Au 7.8939 37.0859 5.1696
Au 7.9015 72.3549 24.0001
Au 7.9062 54.3707 2.7901
Au 7.9152 73.9451 17.7514
Au 7.9190 8.3635 16.6259
Au 7.9209 25.6885 37.1990
Au 7.9246 26.8859 9.7175
Au 7.9290 75.5352 11.5027
Au 7.9427 77.1254 5.2540
Au 7.9552 16.6859 14.2654
Au 7.9572 34.0108 34.8386
Au 7.9608 35.2083 7.3570
Au 7.9647 40.9625 21.9997
Au 7.9738 60.5369 36.9610
Au 7.9785 42.5526 15.7510
Au 7.9859 6.4858 18.8134
Au 7.9875 62.1270 30.7123
Au 7.9879 23.8108 39.3865
Au 7.9915 25.0082 11.9050
Au 7.9922 44.1428 9.5023
Au 8.0012 63.7172 24.4636
Au 8.0060 45.7330 3.2535
Au 8.0150 65.3073 18.2149
Au 8.0222 14.8082 16.4529
Au 8.0242 32.1332 37.0260
Au 8.0278 33.3306 9.5445
Au 8.0287 66.8975 11.9662
Au 8.0425 68.4876 5.7175
Au 8.0529 4.6081 21.0008
Au 8.0585 23.1306 14.0924
Au 8.0605 40.4556 34.6655
Au 8.0735 51.8991 37.4245
Au 8.0872 53.4893 31.1758
Au 8.0892 12.9305 18.6404
Au 8.0911 30.2555 39.2135
Au 8.0948 31.4530 11.7319
Au 8.1010 55.0794 24.9271
Au 8.1100 74.6538 39.8884
Au 8.1147 56.6696 18.6784
Au 8.1199 2.7305 23.1883
Au 8.1237 76.2440 33.6397
Au 8.1255 21.2529 16.2799
Au 8.1274 38.5779 36.8530
Au 8.1285 58.2597 12.4296
Au 8.1375 77.8341 27.3910
Au 8.1422 59.8499 6.1809
Au 8.1512 79.4243 21.1423
Au 8.1561 11.0529 20.8278
Au 8.1617 29.5753 13.9194
Au 8.1732 43.2614 37.8880
Au 8.1868 0.8528 25.3758
Au 8.1870 44.8515 31.6393
Au 8.1924 19.3753 18.4673
Au 8.1944 36.7003 39.0404
Au 8.1980 37.8977 11.5589
Au 8.2007 46.4417 25.3906
Au 8.2145 48.0318 19.1418
Au 8.2231 9.1752 23.0153
Au 8.2235 67.6062 34.1032
Au 8.2282 49.6220 12.8931
Au 8.2287 27.6977 16.1069
Au 8.2372 69.1964 27.8545
Au 8.2420 51.2121 6.6444
Au 8.2510 70.7865 21.6058
Au 8.2557 52.8023 0.3957
Au 8.2594 17.4976 20.6548
Au 8.2647 72.3767 15.3570
Au 8.2650 36.0201 13.7464
Au 8.2785 73.9668 9.1083
Au 8.2901 7.2976 25.2027
Au 8.2922 75.5570 2.8596
Au 8.2957 25.8200 18.2943
Au 8.3232 58.9685 34.5667
Au 8.3264 15.6200 22.8422
Au 8.3280 40.9842 13.3566
Au 8.3320 34.1424 15.9338
Au 8.3370 60.5586 28.3179
Au 8.3417 42.5744 7.1079
Au 8.3507 62.1488 22.0692
Au 8.3554 44.1646 0.8592
Au 8.3570 5.4199 27.3902
Au 8.3626 23.9424 20.4818
Au 8.3645 63.7389 15.8205
Au 8.3782 65.3291 9.5718
Au 8.3919 66.9192 3.3231
Au 8.3933 13.7423 25.0297
Au 8.3989 32.2647 18.1213
Au 8.4230 50.3307 35.0301
Au 8.4240 3.5423 29.5776
Au 8.4276 4.7397 2.0961
Au 8.4296 22.0647 22.6692
Au 8.4367 51.9209 28.7814
Au 8.4505 53.5110 22.5327
Au 8.4535 35.3600 1.3099
Au 8.4595 73.0854 37.4941
Au 8.4603 11.8647 27.2172
Au 8.4642 55.1012 16.2840
Au 8.4659 30.3871 20.3087
Au 8.4732 74.6756 31.2453
Au 8.4779 56.6913 10.0353
Au 8.4870 76.2657 24.9966
Au 8.4910 1.6646 31.7651
Au 8.4917 58.2815 3.7866
Au 8.4946 2.8620 4.2836
Au 8.4966 20.1870 24.8567
Au 8.5007 77.8559 18.7479
Au 8.5022 38.7095 17.9483
Au 8.5145 79.4460 12.4992
Au 8.5273 9.9870 29.4046
Au 8.5309 11.1844 1.9231
Au 8.5329 28.5094 22.4962
Au 8.5365 43.2831 29.2449
Au 8.5502 44.8733 22.9962
Au 8.5592 64.4477 37.9575
Au 8.5616 0.9844 6.4710
Au 8.5636 18.3094 27.0441
Au 8.5640 46.4634 16.7475
Au 8.5692 36.8318 20.1357
Au 8.5730 66.0378 31.7088
Au 8.5777 48.0536 10.4987
Au 8.5867 67.6280 25.4601
Au 8.5914 49.6437 4.2500
Au 8.5942 8.1093 31.5921
Au 8.5979 9.3068 4.1105
Au 8.5998 26.6318 24.6837
Au 8.6005 69.2181 19.2114
Au 8.6142 70.8083 12.9627
Au 8.6279 72.3984 6.7140
Au 8.6305 16.4317 29.2316
Au 8.6361 34.9542 22.3232
Au 8.6417 73.9886 0.4652
Au 8.6590 55.8099 38.4210
Au 8.6612 6.2317 33.7795
Au 8.6648 7.4291 6.2980
Au 8.6668 24.7541 26.8711
Au 8.6727 57.4001 32.1723
Au 8.6865 58.9902 25.9236
Au 8.6912 41.0060 4.7135
Au 8.6975 14.5541 31.4191
Au 8.7002 60.5804 19.6749
Au 8.7011 15.7515 3.9375
Au 8.7031 33.0765 24.5106
Au 8.7139 62.1705 13.4261
Au 8.7277 63.7607 7.1774
Au 8.7282 4.3540 35.9670
Au 8.7318 5.5515 8.4855
Au 8.7338 22.8765 29.0586
Au 8.7414 65.3508 0.9287
Au 8.7587 47.1722 38.8845
Au 8.7645 12.6764 33.6065
Au 8.7681 13.8739 6.1250
Au 8.7701 31.1989 26.6981
Au 8.7725 48.7623 32.6358
Au 8.7862 50.3525 26.3870
Au 8.7951 2.4764 38.1544
Au 8.7988 3.6738 10.6729
Au 8.8000 51.9426 20.1383
Au 8.8007 20.9988 31.2460
Au 8.8044 22.1963 3.7645
Au 8.8063 39.5212 24.3376
Au 8.8090 71.5170 35.0997
Au 8.8137 53.5328 13.8896
Au 8.8227 73.1072 28.8510
Au 8.8274 55.1229 7.6409
Au 8.8314 10.7988 35.7940
Au 8.8351 11.9962 8.3124
Au 8.8365 74.6973 22.6022
Au 8.8370 29.3212 28.8855
Au 8.8412 56.7131 1.3922
Au 8.8502 76.2875 16.3535
Au 8.8639 77.8776 10.1048
Au 8.8657 1.7962 12.8604
Au 8.8677 19.1212 33.4335
Au 8.8713 20.3186 5.9519
Au 8.8733 37.6436 26.5251
Au 8.8777 79.4678 3.8561
Au 8.8860 41.7147 26.8505
Au 8.8984 8.9211 37.9814
Au 8.8997 43.3049 20.6018
Au 8.9020 10.1186 10.4999
Au 8.9040 27.4435 31.0730
Au 8.9076 28.6410 3.5915
Au 8.9087 62.8793 35.5632
Au 8.9134 44.8950 14.3531
Au 8.9225 64.4694 29.3144
Au 8.9272 46.4852 8.1044
Au 8.9347 17.2435 35.6209
Au 8.9362 66.0596 23.0657
Au 8.9383 18.4409 8.1394
Au 8.9403 35.7659 28.7125
Au 8.9409 48.0753 1.8557
Au 8.9499 67.6497 16.8170
Au 8.9637 69.2399 10.5683
Au 8.9690 8.2409 12.6873
Au 8.9710 25.5659 33.2605
Au 8.9746 26.7633 5.7789
Au 8.9774 70.8300 4.3196
Au 9.0016 15.3658 37.8084
Au 9.0021 2.1137 0.7796
Au 9.0053 16.5633 10.3269
Au 9.0072 33.8883 30.9000
Au 9.0085 54.2415 36.0266
Au 9.0109 35.0857 3.4184
Au 9.0222 55.8317 29.7779
Au 9.0360 57.4218 23.5292
Au 9.0360 6.3632 14.8748
Au 9.0379 23.6882 35.4479
Au 9.0416 24.8857 7.9664
Au 9.0450 76.9962 38.4905
Au 9.0497 59.0120 17.2805
Au 9.0587 78.5863 32.2418
Au 9.0634 60.6021 11.0318
Au 9.0686 13.4882 39.9959
Au 9.0722 14.6856 12.5143
Au 9.0742 32.0106 33.0874
Au 9.0772 62.1923 4.7831
Au 9.0778 33.2081 5.6059
Au 9.1029 4.4856 17.0623
Au 9.1049 21.8106 37.6354
Au 9.1082 45.6038 36.4901
Au 9.1085 23.0080 10.1538
Au 9.1220 47.1939 30.2414
Au 9.1357 48.7841 23.9927
Au 9.1392 12.8080 14.7018
Au 9.1412 30.1330 35.2749
Au 9.1447 68.3584 38.9540
Au 9.1448 31.3304 7.7933
Au 9.1494 50.3742 17.7440
Au 9.1585 69.9486 32.7053
Au 9.1632 51.9644 11.4952
Au 9.1699 2.6079 19.2497
Au 9.1719 19.9329 39.8228
Au 9.1722 71.5388 26.4566
Au 9.1755 21.1304 12.3413
Au 9.1769 53.5545 5.2465
Au 9.1775 38.4554 32.9144
Au 9.1859 73.1289 20.2079
Au 9.1997 74.7191 13.9592
Au 9.2062 10.9303 16.8892
Au 9.2082 28.2553 37.4623
Au 9.2118 29.4528 9.9808
Au 9.2134 76.3092 7.7104
Au 9.2272 77.8994 1.4617
Au 9.2369 0.7303 21.4372
Au 9.2425 19.2527 14.5287
Au 9.2444 36.5777 35.1019
Au 9.2445 59.7207 39.4175
Au 9.2481 37.7751 7.6203
Au 9.2492 41.7365 18.2074
Au 9.2582 61.3109 33.1688
Au 9.2629 43.3266 11.9587
Au 9.2720 62.9010 26.9201
Au 9.2731 9.0527 19.0767
Au 9.2751 26.3777 39.6498
Au 9.2767 44.9168 5.7100
Au 9.2787 27.5751 12.1683
Au 9.2857 64.4912 20.6713
Au 9.2994 66.0813 14.4226
Au 9.3094 17.3751 16.7162
Au 9.3114 34.7001 37.2893
Au 9.3132 67.6715 8.1739
Au 9.3150 35.8975 9.8078
Au 9.3269 69.2616 1.9252
Au 9.3401 7.1750 21.2641
Au 9.3442 51.0830 39.8810
Au 9.3457 25.6974 14.3557
Au 9.3580 52.6731 33.6323
Au 9.3717 54.2633 27.3835
Au 9.3764 15.4974 18.9037
Au 9.3784 32.8224 39.4768
Au 9.3820 34.0198 11.9952
Au 9.3854 55.8534 21.1348
Au 9.3907 15.6303 0.4938
Au 9.3945 75.4278 36.0962
Au 9.3992 57.4436 14.8861
Au 9.4071 5.2974 23.4516
Au 9.4082 77.0179 29.8475
Au 9.4127 23.8198 16.5432
Au 9.4129 19.3557 2.1522
Au 9.4129 59.0337 8.6374
Au 9.4147 41.1448 37.1163
Au 9.4219 78.6081 23.5987
Au 9.4267 60.6239 2.3887
Au 9.4434 13.6197 21.0911
Au 9.4490 32.1422 14.1827
Au 9.4577 44.0354 34.0957
Au 9.4714 45.6255 27.8470
Au 9.4740 3.4197 25.6391
Au 9.4797 21.9421 18.7306
Au 9.4816 39.2671 39.3037
Au 9.4852 47.2157 21.5983
Au 9.4942 66.7900 36.5596
Au 9.4989 48.8058 15.3496
Au 9.5079 68.3802 30.3109
Au 9.5103 11.7421 23.2786
Au 9.5127 50.3960 9.1009
Au 9.5159 30.2645 16.3701
Au 9.5217 69.9704 24.0622
Au 9.5264 51.9861 2.8522
Au 9.5354 71.5605 17.8135
Au 9.5410 1.5420 27.8265
Au 9.5466 20.0645 20.9181
Au 9.5492 73.1507 11.5648
Au 9.5522 38.5869 14.0097
Au 9.5629 74.7408 5.3161
Au 9.5773 9.8644 25.4660
Au 9.5829 28.3869 18.5576
Au 9.5940 58.1523 37.0231
Au 9.5961 24.2513 1.1801
Au 9.6077 59.7425 30.7744
Au 9.6124 41.7582 9.5643
Au 9.6136 18.1868 23.1055
Au 9.6192 36.7093 16.1971
Au 9.6214 61.3326 24.5257
Au 9.6262 43.3484 3.3156
Au 9.6352 62.9228 18.2770
Au 9.6443 7.9868 27.6535
Au 9.6489 64.5129 12.0283
Au 9.6499 26.5092 20.7451
Au 9.6627 66.1031 5.7795
Au 9.6806 16.3092 25.2930
Au 9.6862 34.8316 18.3846
Au 9.6937 49.5146 37.4866
Au 9.7074 51.1047 31.2379
Au 9.7112 6.1091 29.8409
Au 9.7168 24.6316 22.9325
Au 9.7212 52.6949 24.9892
Au 9.7302 72.2692 39.9505
Au 9.7349 54.2850 18.7404
Au 9.7439 73.8594 33.7018
Au 9.7475 14.4315 27.4805
Au 9.7487 55.8752 12.4917
Au 9.7531 32.9539 20.5720
Au 9.7577 75.4495 27.4531
Au 9.7624 57.4653 6.2430
Au 9.7714 77.0397 21.2044
Au 9.7782 4.2315 32.0284
Au 9.7793 29.1469 0.2079
Au 9.7818 5.4289 4.5469
Au 9.7838 22.7539 25.1200
Au 9.7852 78.6299 14.9557
Au 9.8014 32.8723 1.8664
Au 9.8072 42.4670 31.7014
Au 9.8145 12.5539 29.6679
Au 9.8201 31.0763 22.7595
Au 9.8209 44.0571 25.4526
Au 9.8347 45.6473 19.2039
Au 9.8437 65.2216 34.1653
Au 9.8452 2.3538 34.2159
Au 9.8484 47.2374 12.9552
Au 9.8488 3.5513 6.7343
Au 9.8508 20.8762 27.3074
Au 9.8564 39.3987 20.3990
Au 9.8574 66.8118 27.9166
Au 9.8622 48.8276 6.7065
Au 9.8712 68.4020 21.6678
Au 9.8759 50.4177 0.4578
Au 9.8815 10.6762 31.8554
Au 9.8849 69.9921 15.4191
Au 9.8851 11.8736 4.3738
Au 9.8871 29.1986 24.9470
Au 9.8987 71.5823 9.1704
Au 9.9121 0.4762 36.4033
Au 9.9124 73.1724 2.9217
Au 9.9158 1.6736 8.9218
Au 9.9177 18.9986 29.4949
Au 9.9233 37.5210 22.5865
Au 9.9434 56.5839 34.6287
Au 9.9484 8.7985 34.0428
Au 9.9521 9.9960 6.5613
Au 9.9540 27.3210 27.1344
Au 9.9572 58.1741 28.3800
Au 9.9619 40.1898 7.1700
Au 9.9709 59.7642 22.1313
Au 9.9756 41.7800 0.9213
Au 9.9799 79.3386 37.0927
Au 9.9846 37.7679 0.8942
Au 9.9847 61.3544 15.8826
Au 9.9847 17.1209 31.6823
Au 9.9883 18.3184 4.2008
Au 9.9903 35.6434 24.7739
Au 9.9984 62.9445 9.6339
Au 10.0121 64.5347 3.3852
Au 10.0154 6.9209 36.2303
Au 10.0190 8.1183 8.7488
Au 10.0210 25.4433 29.3219
Au 10.0432 47.9462 35.0922
Au 10.0517 15.2433 33.8698
Au 10.0553 16.4407 6.3883
Au 10.0569 49.5363 28.8435
Au 10.0573 33.7657 26.9614
Au 10.0707 51.1265 22.5948
Au 10.0797 70.7008 37.5561
Au 10.0824 5.0432 38.4177
Au 10.0844 52.7166 16.3461
Au 10.0860 6.2407 10.9362
Au 10.0880 23.5657 31.5093
Au 10.0916 24.7631 4.0278
Au 10.0934 72.2910 31.3074
Au 10.0982 54.3068 10.0974
Au 10.1072 73.8811 25.0587
Au 10.1119 55.8969 3.8486
Au 10.1186 13.3656 36.0573
Au 10.1209 75.4713 18.8100
Au 10.1223 14.5631 8.5757
Au 10.1242 31.8881 29.1488
Au 10.1347 77.0615 12.5613
Au 10.1484 78.6516 6.3126
Au 10.1530 4.3630 13.1237
Au 10.1549 21.6880 33.6968
Au 10.1586 22.8855 6.2152
Au 10.1605 40.2105 26.7884
Au 10.1704 42.4887 23.0583
Au 10.1794 62.0631 38.0196
Au 10.1842 44.0789 16.8095
Au 10.1856 11.4880 38.2447
Au 10.1892 12.6854 10.7632
Au 10.1912 30.0104 31.3363
Au 10.1932 63.6532 31.7709
Au 10.1948 31.2078 3.8548
Au 10.1979 45.6690 10.5608
Au 10.2069 65.2434 25.5222
Au 10.2116 47.2592 4.3121
Au 10.2199 2.4854 15.3111
Au 10.2207 66.8336 19.2735
Au 10.2219 19.8104 35.8842
Au 10.2255 21.0078 8.4027
Au 10.2275 38.3328 28.9758
Au 10.2344 68.4237 13.0248
Au 10.2481 70.0139 6.7760
Au 10.2562 10.8078 12.9506
Au 10.2582 28.1328 33.5238
Au 10.2618 29.3302 6.0422
Au 10.2619 71.6040 0.5273
Au 10.2792 53.4254 38.4831
Au 10.2869 0.6077 17.4986
Au 10.2889 17.9327 38.0717
Au 10.2925 19.1301 10.5902
Au 10.2929 55.0155 32.2344
Au 10.2945 36.4551 31.1633
Au 10.3067 56.6057 25.9857
Au 10.3204 58.1958 19.7369
Au 10.3232 8.9301 15.1381
Au 10.3252 26.2551 35.7112
Au 10.3288 27.4525 8.2297
Au 10.3294 77.7702 34.6983
Au 10.3342 59.7860 13.4882
Au 10.3432 79.3603 28.4496
Au 10.3479 61.3761 7.2395
Au 10.3595 17.2525 12.7776
Au 10.3614 34.5775 33.3507
Au 10.3616 62.9663 0.9908
Au 10.3651 35.7749 5.8692
Au 10.3722 3.3515 2.9945
Au 10.3789 44.7876 38.9466
Au 10.3901 7.0524 17.3256
Au 10.3921 24.3774 37.8987
Au 10.3927 46.3778 32.6978
Au 10.3957 25.5749 10.4171
Au 10.4064 47.9679 26.4491
Au 10.4202 49.5581 20.2004
Au 10.4264 15.3748 14.9651
Au 10.4284 32.6998 35.5382
Au 10.4292 69.1324 35.1618
Au 10.4320 33.8973 8.0566
Au 10.4339 51.1482 13.9517
Au 10.4429 70.7226 28.9131
Au 10.4476 52.7384 7.7030
Au 10.4567 72.3127 22.6643
Au 10.4571 5.1748 19.5130
Au 10.4614 54.3285 1.4543
Au 10.4627 23.6972 12.6046
Au 10.4647 41.0222 33.1777
Au 10.4704 73.9029 16.4156
Au 10.4841 75.4931 10.1669
Au 10.4934 13.4972 17.1525
Au 10.4954 30.8222 37.7256
Au 10.4979 77.0832 3.9182
Au 10.4990 32.0196 10.2441
Au 10.5241 3.2971 21.7005
Au 10.5289 60.4947 35.6252
Au 10.5297 21.8196 14.7920
Au 10.5317 39.1446 35.3652
Au 10.5332 4.5216 0.3639
Au 10.5336 42.5105 14.4152
Au 10.5427 62.0849 29.3765
Au 10.5474 44.1006 8.1665
Au 10.5554 8.2470 2.0224
Au 10.5564 63.6750 23.1278
Au 10.5604 11.6195 19.3400
Au 10.5611 45.6908 1.9177
Au 10.5623 28.9445 39.9131
Au 10.5660 30.1420 12.4316
Au 10.5702 65.2652 16.8791
Au 10.5839 66.8553 10.6304
Au 10.5911 1.4195 23.8879
Au 10.5967 19.9419 16.9795
Au 10.5976 68.4455 4.3817
Au 10.5986 37.2669 37.5526
Au 10.6023 38.4644 10.0711
Au 10.6273 9.7419 21.5274
Au 10.6287 51.8570 36.0887
Au 10.6329 28.2643 14.6190
Au 10.6424 53.4471 29.8400
Au 10.6562 55.0373 23.5913
Au 10.6636 18.0643 19.1670
Au 10.6652 74.6116 38.5526
Au 10.6656 35.3893 39.7401
Au 10.6692 36.5867 12.2585
Au 10.6699 56.6274 17.3426
Au 10.6789 76.2018 32.3039
Au 10.6836 58.2176 11.0939
Au 10.6927 77.7919 26.0552
Au 10.6943 7.8642 23.7149
Au 10.6974 59.8077 4.8451
Au 10.6999 26.3866 16.8065
Au 10.7064 79.3821 19.8065
Au 10.7284 43.2192 36.5522
Au 10.7306 16.1866 21.3544
Au 10.7362 34.7090 14.4460
Au 10.7386 13.1426 1.0502
Au 10.7422 44.8094 30.3035
Au 10.7559 46.3995 24.0548
Au 10.7608 16.8681 2.7087
Au 10.7613 5.9866 25.9024
Au 10.7649 65.9739 39.0161
Au 10.7669 24.5090 18.9939
Au 10.7688 41.8340 39.5670
Au 10.7696 47.9897 17.8060
Au 10.7787 67.5640 32.7674
Au 10.7834 49.5798 11.5573
Au 10.7924 69.1542 26.5187
Au 10.7971 51.1700 5.3086
Au 10.7976 14.3089 23.5419
Au 10.8032 32.8314 16.6334
Au 10.8061 70.7443 20.2700
Au 10.8199 72.3345 14.0212
Au 10.8282 4.1089 28.0898
Au 10.8336 73.9247 7.7725
Au 10.8338 22.6313 21.1814
Au 10.8474 75.5148 1.5238
Au 10.8645 12.4313 25.7293
Au 10.8647 57.3361 39.4796
Au 10.8701 30.9537 18.8209
Au 10.8784 58.9263 33.2309
Au 10.8831 40.9421 12.0208
Au 10.8922 60.5165 26.9822
Au 10.8952 2.2312 30.2773
Au 10.8969 42.5322 5.7721
Au 10.9008 20.7537 23.3688
Au 10.9059 62.1066 20.7334
Au 10.9064 39.2761 16.4604
Au 10.9196 63.6968 14.4847
Au 10.9218 18.0382 0.0781
Au 10.9315 10.5536 27.9168
Au 10.9334 65.2869 8.2360
Au 10.9371 29.0761 21.0084
Au 10.9440 21.7636 1.7365
Au 10.9471 66.8771 1.9873
Au 10.9622 0.3536 32.4647
Au 10.9644 48.6984 39.9431
Au 10.9658 1.5510 4.9832
Au 10.9678 18.8760 25.5563
Au 10.9734 37.3985 18.6479
Au 10.9782 50.2886 33.6943
Au 10.9919 51.8787 27.4456
Au 10.9985 8.6760 30.1042
Au 11.0041 27.1984 23.1958
Au 11.0056 53.4689 21.1969
Au 11.0147 73.0432 36.1583
Au 11.0194 55.0590 14.9482
Au 11.0284 74.6334 29.9095
Au 11.0331 56.6492 8.6995
Au 11.0347 16.9984 27.7438
Au 11.0403 35.5208 20.8353
Au 11.0421 76.2235 23.6608
Au 11.0469 58.2393 2.4508
Au 11.0559 77.8137 17.4121
Au 11.0654 6.7983 32.2917
Au 11.0691 7.9958 4.8102
Au 11.0696 79.4038 11.1634
Au 11.0710 25.3208 25.3833
Au 11.0916 43.2410 27.9091
Au 11.1017 15.1207 29.9312
Au 11.1054 44.8311 21.6604
Au 11.1073 33.6432 23.0228
Au 11.1144 64.4055 36.6217
Au 11.1191 46.4213 15.4117
Au 11.1272 26.6592 0.7644
Au 11.1282 65.9956 30.3730
Au 11.1324 4.9207 34.4792
Au 11.1329 48.0114 9.1630
Au 11.1360 6.1181 6.9976
Au 11.1380 23.4431 27.5707
Au 11.1419 67.5858 24.1243
Au 11.1466 49.6016 2.9142
Au 11.1494 30.3847 2.4228
Au 11.1556 69.1759 17.8756
Au 11.1687 13.2431 32.1187
Au 11.1694 70.7661 11.6269
Au 11.1716 34.1101 4.0812
Au 11.1723 14.4405 4.6371
Au 11.1743 31.7655 25.2103
Au 11.1831 72.3563 5.3782
Au 11.1994 3.0430 36.6666
Au 11.2030 4.2405 9.1851
Au 11.2050 21.5655 29.7582
Au 11.2106 40.0879 22.8498
Au 11.2142 55.7677 37.0852
Au 11.2279 57.3579 30.8365
Au 11.2357 11.3654 34.3061
Au 11.2393 12.5628 6.8246
Au 11.2413 29.8878 27.3977
Au 11.2416 58.9481 24.5878
Au 11.2507 78.5224 39.5491
Au 11.2554 60.5382 18.3391
Au 11.2663 1.1654 38.8541
Au 11.2691 62.1284 12.0903
Au 11.2700 2.3628 11.3725
Au 11.2719 19.6878 31.9456
Au 11.2756 20.8852 4.4641
Au 11.2775 38.2102 25.0372
Au 11.2829 63.7185 5.8416
Au 11.3026 9.4878 36.4936
Au 11.3062 10.6852 9.0120
Au 11.3082 28.0102 29.5852
Au 11.3139 47.1300 37.5487
Au 11.3276 48.7202 31.3000
Au 11.3326 35.2802 1.4507
Au 11.3369 0.4851 13.5600
Au 11.3389 17.8101 34.1331
Au 11.3414 50.3103 25.0513
Au 11.3425 19.0076 6.6516
Au 11.3445 36.3326 27.2247
Au 11.3548 39.0057 3.1091
Au 11.3551 51.9005 18.8025
Au 11.3642 71.4748 33.7639
Au 11.3689 53.4906 12.5538
Au 11.3696 7.6101 38.6810
Au 11.3732 8.8075 11.1995
Au 11.3752 26.1325 31.7726
Au 11.3779 73.0650 27.5152
Au 11.3826 55.0808 6.3051
Au 11.3916 74.6551 21.2665
Au 11.3964 56.6709 0.0564
Au 11.4054 76.2453 15.0177
Au 11.4059 15.9325 36.3206
Au 11.4095 17.1299 8.8390
Au 11.4115 34.4549 29.4121
Au 11.4191 77.8354 8.7690
Au 11.4329 79.4256 2.5203
Au 11.4402 6.9299 13.3870
Au 11.4422 24.2549 33.9601
Au 11.4458 25.4523 6.4785
Au 11.4549 43.2627 19.2660
Au 11.4639 62.8371 34.2274
Au 11.4686 44.8529 13.0173
Au 11.4728 14.0548 38.5080
Au 11.4765 15.2523 11.0265
Au 11.4776 64.4272 27.9786
Au 11.4784 32.5773 31.5996
Au 11.4824 46.4430 6.7686
Au 11.4914 66.0174 21.7299
Au 11.4961 48.0332 0.5199
Au 11.5051 67.6076 15.4812
Au 11.5072 5.0522 15.5744
Au 11.5091 22.3772 36.1475
Au 11.5128 23.5747 8.6660
Au 11.5147 40.8997 29.2391
Au 11.5158 40.1758 0.4785
Au 11.5189 69.1977 9.2325
Au 11.5326 70.7879 2.9838
Au 11.5434 13.3746 13.2139
Au 11.5454 30.6996 33.7871
Au 11.5490 31.8971 6.3055
Au 11.5636 54.1993 34.6908
Au 11.5741 3.1746 17.7619
Au 11.5761 20.4996 38.3350
Au 11.5774 55.7895 28.4421
Au 11.5797 21.6970 10.8535
Au 11.5817 39.0220 31.4266
Au 11.5911 57.3797 22.1934
Au 11.6002 76.9540 37.1548
Au 11.6049 58.9698 15.9447
Au 11.6104 11.4970 15.4014
Au 11.6124 28.8220 35.9745
Au 11.6139 78.5442 30.9060
Au 11.6160 30.0194 8.4930
Au 11.6186 60.5600 9.6960
Au 11.6324 62.1501 3.4473
Au 11.6411 1.2969 19.9493
Au 11.6467 19.8194 13.0409
Au 11.6487 37.1443 33.6140
Au 11.6523 38.3418 6.1325
Au 11.6634 45.5616 35.1543
Au 11.6771 47.1518 28.9056
Au 11.6774 9.6193 17.5889
Au 11.6793 26.9443 38.1620
Au 11.6830 28.1417 10.6804
Au 11.6909 48.7419 22.6569
Au 11.6999 68.3163 37.6182
Au 11.7046 50.3321 16.4082
Au 11.7136 69.9064 31.3695
Au 11.7137 17.9417 15.2284
Au 11.7156 35.2667 35.8015
Au 11.7184 51.9222 10.1594
Au 11.7193 36.4641 8.3199
Au 11.7274 71.4966 25.1208
Au 11.7321 53.5124 3.9107
Au 11.7411 73.0867 18.8721
Au 11.7443 7.7416 19.7763
Au 11.7499 26.2641 12.8679
Au 11.7549 74.6769 12.6234
Au 11.7686 76.2670 6.3747
Au 11.7806 16.0640 17.4158
Au 11.7823 77.8572 0.1259
Au 11.7826 33.3890 37.9889
Au 11.7862 34.5865 10.5074
Au 11.7996 59.6785 38.0817
Au 11.8044 41.6943 16.8716
Au 11.8113 5.8640 21.9638
Au 11.8134 61.2687 31.8330
Au 11.8169 24.3864 15.0553
Au 11.8181 43.2845 10.6229
Au 11.8189 41.7114 35.6285
Au 11.8271 62.8588 25.5843
Au 11.8318 44.8746 4.3742
Au 11.8409 64.4490 19.3356
Au 11.8476 14.1864 19.6033
Au 11.8532 32.7088 12.6949
Au 11.8546 66.0392 13.0868
Au 11.8683 67.6293 6.8381
Au 11.8783 3.9863 24.1512
Au 11.8811 2.0339 0.9203
Au 11.8821 69.2195 0.5894
Au 11.8839 22.5088 17.2428
Au 11.8859 39.8338 37.8159
Au 11.8895 41.0312 10.3344
Au 11.8994 51.0408 38.5452
Au 11.9033 5.7594 2.5788
Au 11.9131 52.6309 32.2965
Au 11.9146 12.3087 21.7907
Au 11.9202 30.8312 14.8823
Au 11.9255 9.4848 4.2372
Au 11.9269 54.2211 26.0477
Au 11.9406 55.8113 19.7990
Au 11.9452 2.1087 26.3387
Au 11.9496 75.3856 34.7604
Au 11.9508 20.6311 19.4303
Au 11.9544 57.4014 13.5503
Au 11.9564 39.1536 12.5218
Au 11.9634 76.9758 28.5117
Au 11.9681 58.9916 7.3016
Au 11.9771 78.5659 22.2630
Au 11.9815 10.4311 23.9782
Au 11.9818 60.5817 1.0529
Au 11.9871 28.9535 17.0698
Au 12.0122 0.2310 28.5261
Au 12.0129 43.9932 32.7599
Au 12.0178 18.7535 21.6177
Au 12.0234 37.2759 14.7093
Au 12.0266 45.5834 26.5112
Au 12.0404 47.1735 20.2625
Au 12.0485 8.5534 26.1657
Au 12.0494 66.7479 35.2239
Au 12.0541 27.0759 19.2572
Au 12.0541 48.7637 14.0138
Au 12.0631 68.3380 28.9751
Au 12.0678 50.3538 7.7651
Au 12.0769 69.9282 22.7264
Au 12.0816 51.9440 1.5164
Au 12.0848 16.8758 23.8052
Au 12.0865 10.6549 1.6066
Au 12.0904 35.3982 16.8967
Au 12.0906 71.5183 16.4777
Au 12.1043 73.1085 10.2290
Au 12.1155 6.6758 28.3531
Au 12.1181 74.6986 3.9803
Au 12.1211 25.1982 21.4447
Au 12.1309 18.1059 4.9235
Au 12.1491 58.1101 35.6873
Au 12.1518 14.9982 25.9926
Au 12.1574 33.5206 19.0842
Au 12.1629 59.7003 29.4386
Au 12.1676 41.7161 8.2285
Au 12.1766 61.2904 23.1899
Au 12.1813 43.3062 1.9798
Au 12.1824 4.7981 30.5406
Au 12.1880 23.3205 23.6321
Au 12.1904 62.8806 16.9412
Au 12.2041 64.4708 10.6925
Au 12.2178 66.0609 4.4438
Au 12.2187 13.1205 28.1801
Au 12.2243 31.6429 21.2717
Au 12.2489 49.4724 36.1508
Au 12.2494 2.9205 32.7280
Au 12.2530 4.1179 5.2465
Au 12.2550 21.4429 25.8196
Au 12.2606 39.9653 18.9112
Au 12.2626 51.0625 29.9021
Au 12.2697 15.5505 0.6345
Au 12.2764 52.6527 23.6534
Au 12.2854 72.2271 38.6147
Au 12.2857 11.2428 30.3675
Au 12.2901 54.2429 17.4047
Au 12.2913 29.7653 23.4591
Au 12.2919 19.2760 2.2929
Au 12.2991 73.8172 32.3660
Au 12.3038 55.8330 11.1559
Au 12.3129 75.4074 26.1173
Au 12.3141 23.0014 3.9514
Au 12.3164 1.0428 34.9155
Au 12.3176 57.4232 4.9072
Au 12.3200 2.2402 7.4339
Au 12.3220 19.5652 28.0071
Au 12.3266 76.9975 19.8686
Au 12.3276 38.0877 21.0986
Au 12.3403 78.5877 13.6199
Au 12.3527 9.3652 32.5550
Au 12.3583 27.8876 25.6466
Au 12.3761 44.0150 24.1168
Au 12.3851 63.5893 39.0782
Au 12.3870 0.3626 9.6214
Au 12.3889 17.6876 30.1945
Au 12.3898 45.6051 17.8681
Au 12.3945 36.2100 23.2861
Au 12.3989 65.1795 32.8295
Au 12.4036 47.1953 11.6194
Au 12.4126 66.7696 26.5808
Au 12.4173 48.7854 5.3707
Au 12.4196 7.4875 34.7425
Au 12.4233 8.6850 7.2609
Au 12.4252 26.0100 27.8340
Au 12.4264 68.3598 20.3321
Au 12.4401 69.9499 14.0833
Au 12.4538 71.5401 7.8346
Au 12.4559 15.8099 32.3820
Au 12.4615 34.3324 25.4735
Au 12.4676 73.1303 1.5859
Au 12.4751 24.1715 1.3208
Au 12.4849 54.9516 39.5417
Au 12.4866 5.6099 36.9299
Au 12.4902 6.8073 9.4484
Au 12.4922 24.1323 30.0215
Au 12.4973 27.8970 2.9792
Au 12.4986 56.5417 33.2930
Au 12.5124 58.1319 27.0442
Au 12.5195 31.6225 4.6377
Au 12.5229 13.9323 34.5694
Au 12.5261 59.7220 20.7955
Au 12.5265 15.1297 7.0879
Au 12.5285 32.4547 27.6610
Au 12.5351 79.2964 35.7569
Au 12.5398 61.3122 14.5468
Au 12.5536 3.7322 39.1174
Au 12.5536 62.9024 8.2981
Au 12.5572 4.9297 11.6358
Au 12.5592 22.2547 32.2089
Au 12.5648 40.7771 25.3005
Au 12.5673 64.4925 2.0494
Au 12.5898 12.0546 36.7569
Au 12.5935 13.2521 9.2753
Au 12.5954 30.5770 29.8485
Au 12.5984 47.9040 33.7564
Au 12.6121 49.4941 27.5077
Au 12.6242 3.0520 13.8233
Au 12.6258 51.0843 21.2590
Au 12.6261 20.3770 34.3964
Au 12.6298 21.5744 6.9149
Au 12.6317 38.8994 27.4880
Au 12.6349 70.6587 36.2203
Au 12.6396 52.6745 15.0103
Au 12.6486 72.2488 29.9716
Au 12.6533 54.2646 8.7616
Au 12.6568 10.1770 38.9443
Au 12.6583 29.0671 0.3486
Au 12.6604 11.3744 11.4628
Au 12.6624 73.8390 23.7229
Au 12.6624 28.6994 32.0359
Au 12.6671 55.8548 2.5129
Au 12.6761 75.4291 17.4742
Au 12.6805 32.7925 2.0071
Au 12.6898 77.0193 11.2255
Au 12.6911 1.1743 16.0107
Au 12.6931 18.4993 36.5839
Au 12.6967 19.6968 9.1023
Au 12.6987 37.0218 29.6754
Au 12.7027 36.5180 3.6655
Au 12.7036 78.6094 4.9768
Au 12.7249 40.2435 5.3240
Au 12.7256 42.4466 21.7225
Au 12.7274 9.4967 13.6503
Au 12.7294 26.8217 34.2234
Au 12.7330 28.0192 6.7418
Au 12.7346 62.0209 36.6838
Au 12.7393 44.0367 15.4738
Au 12.7484 63.6111 30.4351
Au 12.7531 45.6269 9.2250
Au 12.7601 16.6217 38.7713
Au 12.7621 65.2012 24.1864
Au 12.7637 17.8191 11.2898
Au 12.7657 35.1441 31.8629
Au 12.7668 47.2170 2.9763
Au 12.7758 66.7914 17.9377
Au 12.7896 68.3815 11.6890
Au 12.7944 7.6191 15.8377
Au 12.7963 24.9441 36.4108
Au 12.8000 26.1415 8.9293
Au 12.8033 69.9717 5.4402
Au 12.8307 15.9415 13.4772
Au 12.8326 33.2665 34.0504
Au 12.8344 53.3832 37.1473
Au 12.8363 34.4639 6.5688
Au 12.8481 54.9733 30.8986
Au 12.8613 5.7414 18.0252
Au 12.8618 56.5635 24.6499
Au 12.8633 23.0664 38.5983
Au 12.8637 37.6881 1.0349
Au 12.8669 24.2639 11.1168
Au 12.8689 41.5889 31.6899
Au 12.8709 76.1379 39.6112
Au 12.8756 58.1536 18.4012
Au 12.8846 77.7280 33.3625
Au 12.8859 41.4136 2.6934
Au 12.8893 59.7438 12.1524
Au 12.8976 14.0638 15.6647
Au 12.8983 79.3182 27.1138
Au 12.8996 31.3888 36.2378
Au 12.9031 61.3340 5.9037
Au 12.9032 32.5863 8.7563
Au 12.9283 3.8638 20.2126
Au 12.9339 22.3862 13.3042
Au 12.9341 44.7454 37.6108
Au 12.9359 39.7112 33.8773
Au 12.9479 46.3356 31.3621
Au 12.9616 47.9257 25.1133
Au 12.9646 12.1862 17.8521
Au 12.9666 29.5112 38.4253
Au 12.9702 30.7086 10.9437
Au 12.9753 49.5159 18.8646
Au 12.9844 69.0903 33.8260
Au 12.9891 51.1061 12.6159
Au 12.9953 1.9861 22.4001
Au 12.9981 70.6804 27.5773
Au 13.0009 20.5086 15.4917
Au 13.0028 52.6962 6.3672
Au 13.0029 37.8336 36.0648
Au 13.0065 39.0310 8.5832
Au 13.0118 72.2706 21.3285
Au 13.0166 54.2864 0.1185
Au 13.0256 73.8607 15.0798
Au 13.0316 10.3085 20.0396
Au 13.0372 28.8309 13.1312
Au 13.0393 75.4509 8.8311
Au 13.0469 42.5837 0.0628
Au 13.0531 77.0410 2.5824
Au 13.0622 0.1085 24.5875
Au 13.0678 18.6309 17.6791
Au 13.0698 35.9559 38.2522
Au 13.0735 37.1533 10.7707
Au 13.0841 60.4525 34.2894
Au 13.0888 42.4683 13.0794
Au 13.0902 2.1016 5.7658
Au 13.0978 62.0427 28.0407
Au 13.0985 8.4309 22.2271
Au 13.1026 44.0585 6.8307
Au 13.1041 26.9533 15.3186
Au 13.1116 63.6328 21.7920
Au 13.1163 45.6486 0.5820
Au 13.1253 65.2230 15.5433
Au 13.1348 16.7532 19.8666
Au 13.1391 66.8131 9.2946
Au 13.1404 35.2757 12.9582
Au 13.1528 68.4033 3.0459
Au 13.1655 6.5532 24.4145
Au 13.1711 25.0756 17.5061
Au 13.1731 42.4006 38.0792
Au 13.1839 51.8148 34.7529
Au 13.1976 53.4049 28.5042
Au 13.2018 14.8756 22.0540
Au 13.2074 33.3980 15.1456
Au 13.2113 54.9951 22.2555
Au 13.2204 74.5695 37.2168
Au 13.2251 56.5852 16.0068
Au 13.2325 4.6755 26.6020
Au 13.2341 76.1596 30.9681
Au 13.2381 23.1980 19.6936
Au 13.2388 58.1754 9.7581
Au 13.2478 77.7498 24.7194
Au 13.2512 3.2717 3.1352
Au 13.2526 59.7656 3.5093
Au 13.2616 79.3399 18.4707
Au 13.2688 12.9979 24.2415
Au 13.2734 6.9972 4.7937
Au 13.2744 31.5204 17.3331
Au 13.2973 44.7672 28.9677
Au 13.2994 2.7979 28.7894
Au 13.3050 21.3203 21.8810
Au 13.3106 39.8428 14.9726
Au 13.3111 46.3573 22.7190
Au 13.3201 65.9317 37.6803
Au 13.3248 47.9475 16.4703
Au 13.3338 67.5219 31.4316
Au 13.3357 11.1203 26.4290
Au 13.3386 49.5377 10.2215
Au 13.3413 29.6427 19.5205
Au 13.3476 69.1120 25.1829
Au 13.3523 51.1278 3.9728
Au 13.3613 70.7022 18.9342
Au 13.3664 0.9202 30.9769
Au 13.3720 19.4427 24.0685
Au 13.3751 72.2923 12.6855
Au 13.3776 37.9651 17.1600
Au 13.3888 73.8825 6.4367
Au 13.4025 75.4726 0.1880
Au 13.4027 9.2426 28.6164
Au 13.4083 27.7651 21.7080
Au 13.4122 4.4418 0.5046
Au 13.4198 57.2940 38.1438
Au 13.4336 58.8841 31.8951
Au 13.4344 8.1673 2.1631
Au 13.4390 17.5650 26.2559
Au 13.4446 36.0874 19.3475
Au 13.4473 60.4743 25.6464
Au 13.4566 11.8927 3.8215
Au 13.4611 62.0644 19.3976
Au 13.4697 7.3650 30.8039
Au 13.4748 63.6546 13.1489
Au 13.4753 25.8874 23.8954
Au 13.4788 15.6182 5.4800
Au 13.4886 65.2447 6.9002
Au 13.5023 66.8349 0.6515
Au 13.5059 15.6874 28.4434
Au 13.5115 34.2098 21.5350
Au 13.5196 48.6562 38.6073
Au 13.5333 50.2464 32.3585
Au 13.5366 5.4873 32.9913
Au 13.5422 24.0097 26.0829
Au 13.5471 51.8365 26.1098
Au 13.5608 53.4267 19.8611
Au 13.5698 73.0011 34.8225
Au 13.5729 13.8097 30.6308
Au 13.5746 55.0168 13.6124
Au 13.5785 32.3321 23.7224
Au 13.5836 74.5912 28.5738
Au 13.5883 56.6070 7.3637
Au 13.5973 76.1814 22.3250
Au 13.6020 58.1972 1.1150
Au 13.6036 3.6097 35.1788
Au 13.6072 4.8071 7.6972
Au 13.6092 22.1321 28.2704
Au 13.6111 77.7715 16.0763
Au 13.6148 40.6545 21.3619
Au 13.6176 13.0628 1.1909
Au 13.6248 79.3617 9.8276
Au 13.6398 16.7883 2.8494
Au 13.6399 11.9320 32.8183
Au 13.6455 30.4545 25.9099
Au 13.6468 43.1988 26.5733
Au 13.6606 44.7889 20.3246
Au 13.6620 20.5138 4.5078
Au 13.6696 64.3633 35.2859
Au 13.6706 1.7320 37.3662
Au 13.6742 2.9294 9.8847
Au 13.6743 46.3791 14.0759
Au 13.6762 20.2544 30.4578
Au 13.6818 38.7769 23.5494
Au 13.6833 65.9535 29.0372
Au 13.6842 24.2392 6.1663
Au 13.6880 47.9693 7.8272
Au 13.6971 67.5436 22.7885
Au 13.7018 49.5594 1.5784
Au 13.7068 10.0544 35.0058
Au 13.7105 11.2518 7.5242
Au 13.7108 69.1338 16.5398
Au 13.7124 28.5768 28.0973
Au 13.7246 70.7239 10.2911
Au 13.7383 72.3141 4.0424
Au 13.7412 1.0518 12.0722
Au 13.7431 18.3768 32.6453
Au 13.7487 36.8992 25.7368
Au 13.7693 55.7256 35.7494
Au 13.7738 8.1767 37.1932
Au 13.7774 9.3742 9.7117
Au 13.7794 26.6992 30.2848
Au 13.7831 57.3157 29.5007
Au 13.7968 58.9059 23.2520
Au 13.8008 17.9584 0.2188
Au 13.8058 78.4803 38.2133
Au 13.8101 16.4991 34.8327
Au 13.8106 60.4960 17.0033
Au 13.8137 17.6966 7.3512
Au 13.8157 35.0216 27.9243
Au 13.8230 21.6838 1.8772
Au 13.8243 62.0862 10.7546
Au 13.8380 63.6763 4.5058
Au 13.8408 6.2991 39.3807
Au 13.8444 7.4965 11.8991
Au 13.8452 25.4093 3.5357
Au 13.8464 24.8215 32.4722
Au 13.8674 29.1348 5.1941
Au 13.8691 47.0878 36.2129
Au 13.8771 14.6215 37.0202
Au 13.8807 15.8189 9.5386
Au 13.8827 33.1439 30.1118
Au 13.8828 48.6780 29.9642
Au 13.8896 32.8603 6.8526
Au 13.8966 50.2681 23.7155
Au 13.9056 69.8425 38.6768
Au 13.9103 51.8583 17.4667
Au 13.9114 5.6189 14.0866
Au 13.9134 22.9439 34.6597
Au 13.9190 41.4663 27.7513
Au 13.9193 71.4327 32.4281
Au 13.9240 53.4484 11.2180
Au 13.9331 73.0228 26.1794
Au 13.9378 55.0386 4.9693
Au 13.9440 12.7438 39.2076
Au 13.9468 74.6130 19.9307
Au 13.9477 13.9413 11.7261
Au 13.9496 31.2663 32.2992
Au 13.9606 76.2031 13.6820
Au 13.9743 77.7933 7.4332
Au 13.9783 3.7412 16.2740
Au 13.9803 21.0662 36.8472
Au 13.9839 22.2636 9.3656
Au 13.9859 39.5886 29.9387
Au 13.9880 79.3834 1.1845
Au 14.0053 61.2048 39.1403
Au 14.0062 26.5794 0.9051
Au 14.0101 43.2206 17.9302
Au 14.0146 12.0636 13.9136
Au 14.0166 29.3886 34.4867
Au 14.0191 62.7949 32.8916
Au 14.0238 44.8107 11.6815
Au 14.0284 30.3049 2.5635
Au 14.0328 64.3851 26.6429
Au 14.0375 46.4009 5.4328
Au 14.0453 1.8636 18.4615
Au 14.0466 65.9752 20.3941
Au 14.0473 19.1886 39.0346
Au 14.0506 34.0303 4.2220
Au 14.0509 20.3860 11.5531
Au 14.0529 37.7110 32.1262
Au 14.0603 67.5654 14.1454
Au 14.0728 37.7558 5.8804
Au 14.0740 69.1555 7.8967
Au 14.0816 10.1859 16.1010
Au 14.0836 27.5109 36.6741
Au 14.0872 28.7084 9.1926
Au 14.0878 70.7457 1.6480
Au 14.1051 52.5670 39.6038
Au 14.1179 18.5083 13.7405
Au 14.1188 54.1572 33.3550
Au 14.1199 35.8333 34.3136
Au 14.1326 55.7473 27.1063
Au 14.1463 57.3375 20.8576
Au 14.1486 8.3083 18.2885
Au 14.1505 25.6333 38.8616
Au 14.1542 26.8307 11.3801
Au 14.1553 76.9119 35.8190
Au 14.1600 58.9276 14.6089
Au 14.1691 78.5020 29.5702
Au 14.1738 60.5178 8.3602
Au 14.1849 16.6307 15.9280
Au 14.1868 33.9557 36.5011
Au 14.1875 62.1079 2.1115
Au 14.1905 35.1531 9.0196
Au 14.2116 35.2004 1.5914
Au 14.2155 6.4306 20.4759
Au 14.2186 45.5194 33.8185
Au 14.2211 24.9531 13.5675
Au 14.2231 42.2781 34.1406
Au 14.2323 47.1096 27.5698
Au 14.2338 38.9259 3.2498
Au 14.2461 48.6997 21.3211
Au 14.2518 14.7530 18.1154
Au 14.2538 32.0780 38.6886
Au 14.2551 68.2741 36.2824
Au 14.2560 42.6514 4.9083
Au 14.2574 33.2755 11.2070
Au 14.2598 50.2899 15.0724
Au 14.2688 69.8643 30.0337
Au 14.2735 51.8800 8.8237
Au 14.2825 4.5530 22.6634
Au 14.2826 71.4544 23.7850
Au 14.2873 53.4702 2.5749
Au 14.2881 23.0754 15.7550
Au 14.2901 40.4004 36.3281
Au 14.2937 41.5979 8.8465
Au 14.2963 73.0446 17.5363
Au 14.3100 74.6347 11.2876
Au 14.3188 12.8754 20.3029
Au 14.3238 76.2249 5.0389
Au 14.3244 31.3978 13.3945
Au 14.3495 2.6753 24.8508
Au 14.3548 59.6364 36.7459
Au 14.3551 21.1978 17.9424
Au 14.3570 38.5228 38.5155
Au 14.3607 39.7202 11.0340
Au 14.3686 61.2265 30.4972
Au 14.3823 62.8167 24.2485
Au 14.3858 10.9977 22.4904
Au 14.3870 44.8325 3.0384
Au 14.3914 29.5201 15.5819
Au 14.3948 40.0960 0.6192
Au 14.3960 64.4068 17.9998
Au 14.4098 65.9970 11.7511
Au 14.4164 0.7977 27.0383
Au 14.4220 19.3201 20.1299
Au 14.4235 67.5871 5.5023
Au 14.4276 37.8425 13.2215
Au 14.4527 9.1201 24.6778
Au 14.4546 50.9986 37.2094
Au 14.4583 27.6425 17.7694
Au 14.4683 52.5888 30.9607
Au 14.4820 54.1789 24.7120
Au 14.4890 17.4424 22.3173
Au 14.4911 73.7533 39.6733
Au 14.4946 35.9649 15.4089
Au 14.4958 55.7691 18.4632
Au 14.5048 75.3435 33.4246
Au 14.5095 57.3592 12.2145
Au 14.5186 76.9336 27.1759
Au 14.5197 7.2424 26.8653
Au 14.5233 58.9494 5.9658
Au 14.5253 25.7648 19.9569
Au 14.5323 78.5238 20.9272
Au 14.5560 15.5648 24.5048
Au 14.5616 34.0872 17.5964
Au 14.5681 43.9510 31.4241
Au 14.5818 45.5412 25.1754
Au 14.5867 5.3647 29.0527
Au 14.5923 23.8872 22.1443
Au 14.5955 47.1313 18.9267
Au 14.5979 42.4096 15.2359
Au 14.5992 0.7840 3.6917
Au 14.6046 66.7057 33.8881
Au 14.6093 48.7215 12.6780
Au 14.6183 68.2959 27.6393
Au 14.6214 4.5095 5.3501
Au 14.6229 13.6871 26.6922
Au 14.6230 50.3116 6.4293
Au 14.6285 32.2096 19.7838
Au 14.6320 69.8860 21.3906
Au 14.6368 51.9018 0.1806
Au 14.6436 8.2350 7.0085
Au 14.6458 71.4762 15.1419
Au 14.6536 3.4871 31.2402
Au 14.6592 22.0095 24.3318
Au 14.6595 73.0663 8.8932
Au 14.6648 40.5320 17.4233
Au 14.6733 74.6565 2.6445
Au 14.6899 11.8095 28.8797
Au 14.6955 30.3319 21.9713
Au 14.7043 58.0680 34.3515
Au 14.7180 59.6581 28.1028
Au 14.7206 1.6094 33.4276
Au 14.7262 20.1319 26.5192
Au 14.7318 61.2483 21.8541
Au 14.7318 38.6543 19.6108
Au 14.7455 62.8384 15.6054
Au 14.7569 9.9318 31.0672
Au 14.7593 64.4286 9.3567
Au 14.7602 1.9541 1.0611
Au 14.7625 28.4543 24.1587
Au 14.7730 66.0187 3.1080
Au 14.7824 5.6796 2.7195
Au 14.7912 0.9292 8.1336
Au 14.7932 18.2542 28.7067
Au 14.7988 36.7767 21.7983
Au 14.8041 49.4302 34.8150
Au 14.8046 9.4050 4.3779
Au 14.8178 51.0204 28.5663
Au 14.8239 8.0542 33.2546
Au 14.8267 13.1305 6.0364
Au 14.8295 26.5766 26.3462
Au 14.8315 52.6105 22.3176
Au 14.8406 72.1849 37.2789
Au 14.8453 54.2007 16.0689
Au 14.8543 73.7751 31.0302
Au 14.8590 55.7908 9.8202
Au 14.8601 16.3766 30.8941
Au 14.8657 34.8990 23.9857
Au 14.8680 75.3652 24.7815
Au 14.8728 57.3810 3.5714
Au 14.8818 76.9554 18.5328
Au 14.8908 6.1765 35.4421
Au 14.8955 78.5455 12.2841
Au 14.8964 24.6990 28.5337
Au 14.9271 14.4989 33.0816
Au 14.9313 43.9728 22.7811
Au 14.9327 33.0213 26.1732
Au 14.9403 63.5472 37.7424
Au 14.9434 6.8497 0.0889
Au 14.9450 45.5629 16.5323
Au 14.9540 65.1373 31.4937
Au 14.9578 4.2989 37.6295
Au 14.9588 47.1531 10.2836
Au 14.9614 5.4963 10.1480
Au 14.9634 22.8213 30.7211
Au 14.9656 10.5751 1.7474
Au 14.9678 66.7275 25.2450
Au 14.9690 41.3437 23.8127
Au 14.9725 48.7433 4.0349
Au 14.9815 68.3176 18.9963
Au 14.9877 14.3006 3.4058
Au 14.9941 12.6213 35.2691
Au 14.9953 69.9078 12.7475
Au 14.9997 31.1437 28.3606
Au 15.0090 71.4979 6.4988
Au 15.0099 18.0261 5.0642
Au 15.0228 73.0881 0.2501
Au 15.0248 2.4212 39.8170
Au 15.0284 3.6186 12.3355
Au 15.0304 20.9436 32.9086
Au 15.0321 21.7516 6.7227
Au 15.0360 39.4661 26.0001
Au 15.0401 54.9094 38.2059
Au 15.0538 56.4996 31.9572
Au 15.0610 10.7436 37.4565
Au 15.0647 11.9410 9.9750
Au 15.0666 29.2660 30.5481
Au 15.0675 58.0897 25.7084
Au 15.0813 59.6799 19.4597
Au 15.0903 79.2542 34.4211
Au 15.0950 61.2700 13.2110
Au 15.0954 1.7410 14.5229
Au 15.0973 19.0660 35.0960
Au 15.1029 37.5884 28.1876
Au 15.1088 62.8602 6.9623
Au 15.1225 64.4503 0.7136
Au 15.1280 8.8659 39.6440
Au 15.1316 10.0634 12.1624
Au 15.1336 27.3884 32.7355
Au 15.1398 46.2717 38.6693
Au 15.1488 15.4707 0.7752
Au 15.1535 47.8618 32.4206
Au 15.1643 17.1883 37.2835
Au 15.1673 49.4520 26.1719
Au 15.1679 18.3858 9.8019
Au 15.1699 35.7108 30.3751
Au 15.1709 19.1962 2.4337
Au 15.1810 51.0421 19.9232
Au 15.1900 70.6165 34.8846
Au 15.1931 22.9216 4.0921
Au 15.1948 52.6323 13.6745
Au 15.1986 8.1857 14.3499
Au 15.2006 25.5107 34.9230
Au 15.2038 72.2067 28.6358
Au 15.2085 54.2224 7.4258
Au 15.2153 26.6471 5.7505
Au 15.2175 73.7968 22.3871
Au 15.2222 55.8126 1.1771
Au 15.2313 15.3107 39.4709
Au 15.2313 75.3870 16.1384
Au 15.2349 16.5081 11.9894
Au 15.2369 33.8331 32.5625
Au 15.2375 30.3726 7.4090
Au 15.2450 76.9771 9.8897
Au 15.2588 78.5673 3.6410
Au 15.2656 6.3081 16.5373
Au 15.2675 23.6331 37.1105
Au 15.2712 24.8305 9.6289
Au 15.2731 42.1555 30.2020
Au 15.2898 61.9788 35.3480
Au 15.2945 43.9945 14.1380
Au 15.3019 14.6305 14.1769
Au 15.3035 63.5689 29.0993
Au 15.3038 31.9555 34.7500
Au 15.3083 45.5847 7.8893
Au 15.3173 65.1591 22.8506
Au 15.3220 47.1749 1.6405
Au 15.3310 66.7492 16.6019
Au 15.3325 4.4304 18.7248
Au 15.3345 21.7554 39.2979
Au 15.3381 22.9528 11.8164
Au 15.3401 40.2778 32.3895
Au 15.3448 68.3394 10.3532
Au 15.3541 24.0917 1.4615
Au 15.3585 69.9295 4.1045
Au 15.3688 12.7528 16.3643
Au 15.3708 30.0778 36.9374
Au 15.3744 31.2752 9.4559
Au 15.3763 27.8172 3.1200
Au 15.3895 53.3410 35.8115
Au 15.3985 31.5427 4.7784
Au 15.3995 2.5528 20.9123
Au 15.4033 54.9312 29.5628
Au 15.4051 21.0752 14.0038
Au 15.4071 38.4002 34.5769
Au 15.4170 56.5213 23.3141
Au 15.4207 35.2681 6.4368
Au 15.4260 76.0957 38.2754
Au 15.4308 58.1115 17.0654
Au 15.4358 10.8751 18.5518
Au 15.4378 28.2001 39.1249
Au 15.4398 77.6858 32.0267
Au 15.4414 29.3976 11.6433
Au 15.4429 38.9936 8.0953
Au 15.4445 59.7016 10.8166
Au 15.4535 79.2760 25.7780
Au 15.4582 61.2918 4.5679
Au 15.4665 0.6751 23.0997
Au 15.4721 19.1975 16.1913
Au 15.4741 36.5225 36.7644
Au 15.4893 44.7033 36.2750
Au 15.5028 8.9975 20.7392
Au 15.5030 46.2934 30.0263
Au 15.5084 27.5199 13.8308
Au 15.5168 47.8836 23.7775
Au 15.5258 67.4580 38.7389
Au 15.5305 49.4737 17.5288
Au 15.5373 28.9873 0.4894
Au 15.5390 17.3199 18.3787
Au 15.5395 69.0481 32.4902
Au 15.5410 34.6449 38.9519
Au 15.5443 51.0639 11.2801
Au 15.5446 35.8423 11.4703
Au 15.5533 70.6383 26.2415
Au 15.5580 52.6540 5.0314
Au 15.5595 32.7128 2.1478
Au 15.5670 72.2284 19.9928
Au 15.5697 7.1198 22.9267
Au 15.5753 25.6423 16.0183
Au 15.5808 73.8186 13.7440
Au 15.5817 36.4382 3.8062
Au 15.5945 75.4087 7.4953
Au 15.6039 40.1637 5.4647
Au 15.6060 15.4422 20.5662
Au 15.6082 76.9989 1.2466
Au 15.6116 33.9647 13.6578
Au 15.6255 58.8202 39.2024
Au 15.6367 5.2422 25.1141
Au 15.6393 60.4104 32.9537
Au 15.6423 23.7646 18.2057
Au 15.6443 41.0896 38.7788
Au 15.6479 42.2871 11.2973
Au 15.6530 62.0005 26.7049
Au 15.6668 63.5907 20.4562
Au 15.6730 13.5646 22.7537
Au 15.6786 32.0870 15.8452
Au 15.6805 65.1808 14.2075
Au 15.6942 66.7710 7.9588
Au 15.7037 3.3645 27.3016
Au 15.7080 68.3611 1.7101
Au 15.7093 21.8870 20.3932
Au 15.7149 40.4094 13.4848
Au 15.7253 50.1825 39.6658
Au 15.7390 51.7726 33.4171
Au 15.7399 11.6869 24.9411
Au 15.7427 37.6083 1.1757
Au 15.7456 30.2094 18.0327
Au 15.7528 53.3628 27.1684
Au 15.7649 41.3338 2.8341
Au 15.7665 54.9529 20.9197
Au 15.7706 1.4869 29.4891
Au 15.7755 74.5273 35.8810
Au 15.7762 20.0093 22.5806
Au 15.7802 56.5431 14.6710
Au 15.7818 38.5317 15.6722
Au 15.7893 76.1175 29.6323
Au 15.7940 58.1332 8.4223
Au 15.8030 77.7076 23.3836
Au 15.8069 9.8093 27.1286
Au 15.8077 59.7234 2.1736
Au 15.8125 28.3317 20.2202
Au 15.8168 79.2978 17.1349
Au 15.8432 18.1317 24.7681
Au 15.8488 36.6541 17.8597
Au 15.8525 44.7250 27.6319
Au 15.8663 46.3152 21.3832
Au 15.8739 7.9316 29.3160
Au 15.8753 65.8896 36.3445
Au 15.8795 26.4540 22.4076
Au 15.8800 47.9053 15.1345
Au 15.8890 67.4797 30.0958
Au 15.8937 49.4955 8.8857
Au 15.9028 69.0699 23.8471
Au 15.9075 51.0856 2.6370
Au 15.9102 16.2540 26.9555
Au 15.9158 34.7764 20.0471
Au 15.9165 70.6600 17.5984
Au 15.9259 42.5039 0.2035
Au 15.9302 72.2502 11.3497
Au 15.9409 6.0540 31.5035
Au 15.9440 73.8403 5.1010
Au 15.9465 24.5764 24.5951
Au 15.9521 43.0988 17.6866
Au 15.9693 2.0218 5.9065
Au 15.9750 57.2518 36.8080
Au 15.9771 14.3763 29.1430
Au 15.9827 32.8988 22.2346
Au 15.9888 58.8420 30.5593
Au 15.9915 5.7473 7.5650
Au 16.0025 60.4321 24.3106
Au 16.0078 4.1763 33.6909
Au 16.0134 22.6987 26.7825
Au 16.0162 62.0223 18.0619
Au 16.0190 41.2212 19.8741
Au 16.0300 63.6124 11.8131
Au 16.0437 65.2026 5.5644
Au 16.0441 12.4987 31.3305
Au 16.0497 31.0211 24.4220
Au 16.0748 48.6141 37.2715
Au 16.0748 2.2986 35.8784
Au 16.0804 20.8211 28.9700
Au 16.0860 39.3435 22.0616
Au 16.0885 50.2042 31.0228
Au 16.1023 51.7944 24.7740
Au 16.1111 10.6210 33.5179
Au 16.1113 71.3687 39.7354
Au 16.1160 53.3845 18.5253
Au 16.1167 29.1435 26.6095
Au 16.1250 72.9589 33.4867
Au 16.1297 54.9747 12.2766
Au 16.1303 3.1919 3.2759
Au 16.1388 74.5491 27.2380
Au 16.1418 0.4210 38.0659
Au 16.1435 56.5648 6.0279
Au 16.1454 1.6184 10.5843
Au 16.1474 18.9434 31.1574
Au 16.1525 6.9174 4.9344
Au 16.1525 76.1392 20.9892
Au 16.1530 37.4659 24.2490
Au 16.1662 77.7294 14.7405
Au 16.1747 10.6428 6.5928
Au 16.1780 8.7434 35.7054
Au 16.1800 79.3195 8.4918
Au 16.1836 27.2658 28.7970
Au 16.1969 14.3683 8.2513
Au 16.2143 17.0658 33.3449
Au 16.2157 44.7468 18.9888
Au 16.2199 35.5882 26.4365
Au 16.2248 64.3212 33.9501
Au 16.2295 46.3369 12.7401
Au 16.2385 65.9113 27.7014
Au 16.2432 47.9271 6.4914
Au 16.2450 6.8657 37.8928
Au 16.2486 8.0632 10.4113
Au 16.2506 25.3882 30.9844
Au 16.2522 67.5015 21.4527
Au 16.2562 43.9106 24.0760
Au 16.2570 49.5172 0.2427
Au 16.2660 69.0916 15.2040
Au 16.2797 70.6818 8.9553
Au 16.2813 15.1881 35.5323
Au 16.2869 33.7105 28.6239
Au 16.2913 4.3620 0.6453
Au 16.2935 72.2719 2.7066
Au 16.3135 8.0875 2.3038
Au 16.3156 6.1855 12.5988
Au 16.3176 23.5105 33.1719
Au 16.3232 42.0329 26.2634
Au 16.3245 55.6834 34.4136
Au 16.3357 11.8129 3.9622
Au 16.3383 57.2736 28.1649
Au 16.3483 13.3105 37.7198
Au 16.3519 14.5079 10.2383
Au 16.3520 58.8637 21.9162
Au 16.3539 31.8329 30.8114
Au 16.3579 15.5384 5.6207
Au 16.3610 78.4381 36.8775
Au 16.3657 60.4539 15.6675
Au 16.3795 62.0440 9.4188
Au 16.3801 19.2639 7.2791
Au 16.3826 4.3078 14.7862
Au 16.3845 21.6328 35.3593
Au 16.3902 40.1553 28.4509
Au 16.3932 63.6342 3.1701
Au 16.4022 22.9894 8.9376
Au 16.4152 11.4328 39.9073
Au 16.4189 12.6302 12.4257
Au 16.4208 29.9552 32.9988
Au 16.4243 47.0457 34.8771
Au 16.4380 48.6358 28.6284
Au 16.4495 2.4302 16.9737
Au 16.4515 19.7552 37.5468
Au 16.4517 50.2260 22.3797
Au 16.4551 20.9526 10.0652
Au 16.4571 38.2776 30.6384
Au 16.4608 69.8003 37.3410
Au 16.4655 51.8161 16.1310
Au 16.4745 71.3905 31.0923
Au 16.4792 53.4063 9.8822
Au 16.4858 10.7526 14.6132
Au 16.4878 28.0776 35.1863
Au 16.4882 72.9807 24.8436
Au 16.4930 54.9964 3.6335
Au 16.4967 12.9830 1.3316
Au 16.5020 74.5708 18.5949
Au 16.5157 76.1610 12.3462
Au 16.5165 0.5525 19.1611
Au 16.5185 17.8775 39.7342
Au 16.5189 16.7085 2.9901
Au 16.5221 19.0750 12.2527
Au 16.5241 36.4000 32.8258
Au 16.5295 77.7511 6.0974
Au 16.5411 20.4340 4.6485
Au 16.5528 8.8749 16.8006
Au 16.5548 26.1999 37.3738
Au 16.5584 27.3974 9.8922
Au 16.5605 61.1626 37.8045
Au 16.5633 24.1594 6.3070
Au 16.5743 62.7528 31.5558
Au 16.5790 44.7685 10.3457
Au 16.5854 27.8849 7.9654
Au 16.5880 64.3429 25.3071
Au 16.5891 17.1973 14.4402
Au 16.5911 34.5223 35.0133
Au 16.5927 46.3587 4.0970
Au 16.6017 65.9331 19.0583
Au 16.6155 67.5232 12.8096
Au 16.6198 6.9973 18.9881
Au 16.6217 24.3223 39.5612
Au 16.6254 25.5197 12.0797
Au 16.6273 42.8447 32.6528
Au 16.6292 69.1134 6.5609
Au 16.6430 70.7035 0.3122
Au 16.6560 15.3197 16.6276
Au 16.6580 32.6447 37.2007
Au 16.6603 52.5249 38.2680
Au 16.6616 33.8421 9.7192
Au 16.6740 54.1150 32.0192
Au 16.6799 17.8786 0.3595
Au 16.6867 5.1196 21.1756
Au 16.6877 55.7052 25.7705
Au 16.6923 23.6421 14.2671
Au 16.6943 40.9671 34.8402
Au 16.7015 57.2953 19.5218
Au 16.7021 21.6040 2.0179
Au 16.7105 76.8697 34.4832
Au 16.7152 58.8855 13.2731
Au 16.7230 13.4420 18.8151
Au 16.7242 78.4598 28.2345
Au 16.7243 25.3295 3.6764
Au 16.7250 30.7670 39.3882
Au 16.7286 31.9644 11.9066
Au 16.7290 60.4756 7.0244
Au 16.7427 62.0658 0.7757
Au 16.7464 29.0550 5.3348
Au 16.7537 3.2420 23.3630
Au 16.7593 21.7644 16.4546
Au 16.7613 39.0894 37.0277
Au 16.7686 32.7805 6.9933
Au 16.7737 45.4773 32.4827
Au 16.7875 47.0674 26.2340
Au 16.7900 11.5644 21.0025
Au 16.7908 36.5059 8.6517
Au 16.7956 30.0868 14.0941
Au 16.8012 48.6576 19.9853
Au 16.8102 68.2319 34.9466
Au 16.8150 50.2477 13.7366
Au 16.8207 1.3643 25.5505
Au 16.8240 69.8221 28.6979
Au 16.8263 19.8867 18.6420
Au 16.8282 37.2117 39.2152
Au 16.8287 51.8379 7.4879
Au 16.8319 38.4092 11.7336
Au 16.8377 71.4123 22.4492
Au 16.8424 53.4280 1.2392
Au 16.8515 73.0024 16.2005
Au 16.8570 9.6867 23.1900
Au 16.8626 28.2091 16.2816
Au 16.8652 74.5926 9.9518
Au 16.8790 76.1827 3.7031
Au 16.8853 26.4996 1.0458
Au 16.8932 18.0091 20.8295
Au 16.8988 36.5315 13.9211
Au 16.9074 30.2251 2.7042
Au 16.9100 59.5942 35.4101
Au 16.9237 61.1844 29.1614
Au 16.9239 7.8090 25.3774
Au 16.9295 26.3315 18.4690
Au 16.9296 33.9506 4.3627
Au 16.9315 43.6565 39.0421
Au 16.9375 62.7745 22.9127
Au 16.9512 64.3647 16.6640
Au 16.9518 37.6760 6.0211
Au 16.9602 16.1314 23.0170
Au 16.9650 65.9548 10.4153
Au 16.9658 34.6539 16.1085
Au 16.9740 41.4015 7.6796
Au 16.9787 67.5450 4.1665
Au 16.9909 5.9314 27.5649
Au 16.9965 24.4538 20.6565
Au 17.0021 42.9763 13.7481
Au 17.0097 50.9565 35.8736
Au 17.0235 52.5466 29.6249
Au 17.0272 14.2538 25.2044
Au 17.0328 32.7762 18.2960
Au 17.0372 54.1368 23.3762
Au 17.0462 73.7111 38.3375
Au 17.0510 55.7269 17.1274
Au 17.0579 4.0537 29.7524
Au 17.0600 75.3013 32.0888
Au 17.0635 22.5762 22.8439
Au 17.0647 57.3171 10.8787
Au 17.0685 31.3952 0.0736
Au 17.0691 41.0986 15.9355
Au 17.0737 76.8914 25.8401
Au 17.0784 58.9072 4.6300
Au 17.0875 78.4816 19.5914
Au 17.0906 35.1206 1.7321
Au 17.0941 12.3761 27.3919
Au 17.0997 30.8986 20.4834
Au 17.1128 38.8461 3.3905
Au 17.1248 2.1761 31.9398
Au 17.1304 20.6985 25.0314
Au 17.1350 42.5716 5.0490
Au 17.1360 39.2209 18.1230
Au 17.1370 45.4990 23.8396
Au 17.1460 65.0734 38.8010
Au 17.1507 47.0892 17.5909
Au 17.1597 66.6635 32.5523
Au 17.1611 10.4985 29.5793
Au 17.1645 48.6793 11.3422
Au 17.1667 29.0209 22.6709
Au 17.1735 68.2537 26.3036
Au 17.1782 50.2695 5.0935
Au 17.1872 69.8439 20.0548
Au 17.1918 0.2984 34.1273
Au 17.1974 18.8209 27.2188
Au 17.2010 71.4340 13.8061
Au 17.2030 37.3433 20.3104
Au 17.2147 73.0242 7.5574
Au 17.2281 8.6208 31.7668
Au 17.2284 74.6143 1.3087
Au 17.2337 27.1432 24.8584
Au 17.2457 56.4356 39.2645
Au 17.2595 58.0258 33.0157
Au 17.2644 16.9432 29.4063
Au 17.2700 35.4656 22.4979
Au 17.2732 59.6160 26.7670
Au 17.2738 40.0162 0.7599
Au 17.2870 61.2061 20.5183
Au 17.2950 6.7432 33.9542
Au 17.2960 43.7417 2.4184
Au 17.3006 25.2656 27.0458
Au 17.3007 62.7963 14.2696
Au 17.3062 43.7880 20.1374
Au 17.3144 64.3864 8.0209
Au 17.3282 65.9766 1.7722
Au 17.3313 15.0655 31.5938
Au 17.3369 33.5880 24.6853
Au 17.3394 3.2596 8.1214
Au 17.3455 47.7979 39.7279
Au 17.3592 49.3881 33.4792
Au 17.3620 4.8655 36.1417
Au 17.3676 23.3879 29.2333
Au 17.3730 50.9782 27.2305
Au 17.3732 41.9104 22.3249
Au 17.3867 52.5684 20.9818
Au 17.3957 72.1427 35.9431
Au 17.3983 13.1879 33.7812
Au 17.4005 54.1585 14.7331
Au 17.4039 31.7103 26.8728
Au 17.4095 73.7329 29.6944
Au 17.4142 55.7487 8.4844
Au 17.4232 75.3230 23.4457
Au 17.4279 57.3388 2.2356
Au 17.4290 2.9878 38.3292
Au 17.4326 4.1853 10.8476
Au 17.4346 21.5103 31.4207
Au 17.4370 76.9132 17.1970
Au 17.4402 40.0327 24.5123
Au 17.4507 78.5034 10.9483
Au 17.4653 11.3102 35.9687
Au 17.4709 29.8327 29.0603
Au 17.4782 0.7042 3.8324
Au 17.4955 63.5050 36.4066
Au 17.4996 2.3076 13.0351
Au 17.5002 45.5208 15.1965
Au 17.5004 4.4297 5.4908
Au 17.5016 19.6326 33.6082
Au 17.5072 38.1551 26.6998
Au 17.5092 65.0951 30.1579
Au 17.5139 47.1109 8.9478
Au 17.5226 8.1552 7.1493
Au 17.5230 66.6853 23.9092
Au 17.5277 48.7011 2.6991
Au 17.5322 9.4326 38.1561
Au 17.5359 10.6300 10.6746
Au 17.5367 68.2755 17.6605
Au 17.5378 27.9550 31.2477
Au 17.5448 11.8806 8.8077
Au 17.5504 69.8656 11.4118
Au 17.5642 71.4558 5.1630
Au 17.5665 0.4300 15.2225
Au 17.5685 17.7550 35.7956
Au 17.5741 36.2774 28.8872
Au 17.5952 54.8672 36.8701
Au 17.6028 8.7524 12.8620
Au 17.6048 26.0774 33.4352
Au 17.6090 56.4574 30.6214
Au 17.6104 44.5998 26.5267
Au 17.6227 58.0476 24.3727
Au 17.6317 77.6219 39.3340
Au 17.6355 15.8773 37.9831
Au 17.6365 59.6377 18.1239
Au 17.6391 17.0748 10.5016
Au 17.6392 1.8743 1.2018
Au 17.6411 34.3998 31.0747
Au 17.6455 79.2121 33.0853
Au 17.6502 61.2279 11.8752
Au 17.6614 5.5998 2.8602
Au 17.6639 62.8180 5.6265
Au 17.6698 6.8747 15.0495
Au 17.6718 24.1997 35.6226
Au 17.6774 42.7221 28.7142
Au 17.6836 9.3253 4.5187
Au 17.6950 46.2295 37.3336
Au 17.7058 13.0507 6.1771
Au 17.7061 15.1971 12.6890
Au 17.7081 32.5221 33.2621
Au 17.7087 47.8197 31.0848
Au 17.7225 49.4098 24.8361
Au 17.7280 16.7762 7.8356
Au 17.7315 68.9842 39.7975
Au 17.7362 51.0000 18.5874
Au 17.7368 4.9971 17.2370
Au 17.7387 22.3221 37.8101
Au 17.7443 40.8445 30.9017
Au 17.7452 70.5743 33.5488
Au 17.7499 52.5901 12.3387
Au 17.7590 72.1645 27.3000
Au 17.7637 54.1803 6.0900
Au 17.7727 73.7546 21.0513
Au 17.7731 13.3194 14.8765
Au 17.7750 30.6444 35.4496
Au 17.7864 75.3448 14.8026
Au 17.8002 76.9350 8.5539
Au 17.8037 3.1194 19.4244
Au 17.8057 20.4444 39.9975
Au 17.8093 21.6418 12.5160
Au 17.8113 38.9668 33.0891
Au 17.8139 78.5251 2.3052
Au 17.8224 6.7699 0.2296
Au 17.8400 11.4418 17.0639
Au 17.8420 28.7668 37.6371
Au 17.8446 10.4953 1.8881
Au 17.8450 61.9366 34.0122
Au 17.8587 63.5267 27.7635
Au 17.8668 14.2208 3.5465
Au 17.8707 1.2417 21.6119
Au 17.8725 65.1169 21.5148
Au 17.8763 19.7642 14.7035
Au 17.8783 37.0892 35.2766
Au 17.8862 66.7071 15.2661
Au 17.8890 17.9463 5.2050
Au 17.8999 68.2972 9.0174
Au 17.9070 9.5641 19.2514
Au 17.9090 26.8891 39.8245
Au 17.9112 21.6718 6.8634
Au 17.9126 28.0866 12.3430
Au 17.9137 69.8874 2.7687
Au 17.9334 25.3972 8.5219
Au 17.9433 17.8865 16.8909
Au 17.9447 53.2988 34.4757
Au 17.9452 35.2115 37.4640
Au 17.9556 29.1227 10.1803
Au 17.9585 54.8890 28.2270
Au 17.9722 56.4792 21.9783
Au 17.9740 7.6865 21.4389
Au 17.9796 26.2089 14.5304
Au 17.9812 76.0535 36.9396
Au 17.9815 43.5339 35.1035
Au 17.9859 58.0693 15.7296
Au 17.9950 77.6437 30.6909
Au 17.9997 59.6595 9.4809
Au 18.0087 79.2338 24.4422
Au 18.0102 16.0089 19.0784
Au 18.0122 33.3339 39.6515
Au 18.0134 61.2496 3.2321
Au 18.0158 34.5313 12.1699
Au 18.0278 15.3909 0.9159
Au 18.0409 5.8088 23.6263
Au 18.0465 24.3313 16.7179
Au 18.0485 41.6563 37.2910
Au 18.0500 19.1164 2.5744
Au 18.0582 46.2513 28.6905
Au 18.0719 47.8414 22.4418
Au 18.0722 22.8418 4.2328
Au 18.0772 14.1312 21.2658
Au 18.0810 67.4158 37.4031
Au 18.0828 32.6536 14.3574
Au 18.0857 49.4316 16.1930
Au 18.0944 26.5673 5.8913
Au 18.0947 69.0059 31.1544
Au 18.0994 51.0217 9.9443
Au 18.1079 3.9312 25.8138
Au 18.1084 70.5961 24.9057
Au 18.1132 52.6119 3.6956
Au 18.1135 22.4536 18.9053
Au 18.1155 39.7786 39.4785
Au 18.1166 30.2928 7.5497
Au 18.1191 40.9760 11.9969
Au 18.1222 72.1862 18.6570
Au 18.1359 73.7764 12.4082
Au 18.1442 12.2536 23.4533
Au 18.1497 75.3666 6.1595
Au 18.1498 30.7760 16.5449
Au 18.1749 2.0535 28.0012
Au 18.1805 20.5759 21.0928
Au 18.1807 58.7780 37.8666
Au 18.1861 39.0984 14.1844
Au 18.1945 60.3682 31.6179
Au 18.2082 61.9583 25.3691
Au 18.2111 10.3759 25.6407
Au 18.2167 28.8983 18.7323
Au 18.2219 63.5485 19.1204
Au 18.2332 24.0119 1.6022
Au 18.2357 65.1387 12.8717
Au 18.2418 0.1759 30.1887
Au 18.2474 18.6983 23.2803
Au 18.2494 66.7288 6.6230
Au 18.2530 37.2207 16.3718
Au 18.2554 27.7374 3.2607
Au 18.2632 68.3190 0.3743
Au 18.2776 31.4629 4.9191
Au 18.2781 8.4982 27.8282
Au 18.2805 50.1403 38.3301
Au 18.2837 27.0207 20.9198
Au 18.2942 51.7304 32.0813
Au 18.2998 35.1884 6.5776
Au 18.3079 53.3206 25.8326
Au 18.3144 16.8206 25.4677
Au 18.3200 35.3431 18.5593
Au 18.3217 54.9108 19.5839
Au 18.3219 38.9138 8.2360
Au 18.3307 74.4851 34.5453
Au 18.3354 56.5009 13.3352
Au 18.3441 42.6393 9.8945
Au 18.3444 76.0753 28.2965
Au 18.3451 6.6206 30.0157
Au 18.3492 58.0911 7.0865
Au 18.3507 25.1430 23.1072
Au 18.3563 43.6655 16.1988
Au 18.3582 77.6654 22.0478
Au 18.3629 59.6812 0.8378
Au 18.3719 79.2556 15.7991
Au 18.3814 14.9430 27.6552
Au 18.3870 33.4654 20.7467
Au 18.4120 4.7429 32.2031
Au 18.4164 28.9075 0.6301
Au 18.4177 23.2654 25.2947
Au 18.4214 46.2730 20.0474
Au 18.4233 41.7878 18.3863
Au 18.4305 65.8474 35.0087
Au 18.4352 47.8632 13.7987
Au 18.4386 32.6330 2.2885
Au 18.4442 67.4375 28.7600
Au 18.4483 13.0653 29.8426
Au 18.4489 49.4533 7.5500
Au 18.4539 31.5878 22.9342
Au 18.4579 69.0277 22.5113
Au 18.4608 36.3584 3.9470
Au 18.4627 51.0435 1.3012
Au 18.4717 70.6178 16.2626
Au 18.4790 2.8653 34.3906
Au 18.4830 40.0839 5.6054
Au 18.4846 21.3877 27.4821
Au 18.4854 72.2080 10.0139
Au 18.4902 39.9102 20.5737
Au 18.4992 73.7982 3.7652
Au 18.5051 43.8094 7.2639
Au 18.5153 11.1877 32.0301
Au 18.5209 29.7101 25.1217
Au 18.5302 57.2096 35.4722
Au 18.5439 58.7998 29.2235
Au 18.5460 0.9876 36.5780
Au 18.5516 19.5101 29.6696
Au 18.5572 38.0325 22.7612
Au 18.5577 60.3899 22.9748
Au 18.5667 79.9643 37.9361
Au 18.5714 61.9801 16.7261
Au 18.5823 9.3100 34.2175
Au 18.5852 63.5703 10.4773
Au 18.5879 27.8325 27.3091
Au 18.5989 65.1604 4.2286
Au 18.6166 0.3074 11.2839
Au 18.6186 17.6324 31.8571
Au 18.6218 37.5285 1.3164
Au 18.6242 36.1548 24.9486
Au 18.6299 48.5719 35.9357
Au 18.6437 50.1621 29.6870
Au 18.6440 41.2540 2.9748
Au 18.6492 7.4324 36.4050
Au 18.6548 25.9548 29.4966
Au 18.6574 51.7522 23.4382
Au 18.6604 44.4772 22.5882
Au 18.6661 44.9795 4.6333
Au 18.6665 71.3266 38.3996
Au 18.6712 53.3424 17.1895
Au 18.6802 72.9167 32.1509
Au 18.6849 54.9325 10.9408
Au 18.6855 15.7548 34.0445
Au 18.6873 0.7719 8.6778
Au 18.6911 34.2772 27.1361
Au 18.6939 74.5069 25.9022
Au 18.6987 56.5227 4.6921
Au 18.7077 76.0970 19.6535
Au 18.7162 5.5547 38.5925
Au 18.7214 77.6872 13.4047
Au 18.7218 24.0771 31.6840
Au 18.7274 42.5996 24.7756
Au 18.7352 79.2773 7.1560
Au 18.7525 13.8771 36.2320
Au 18.7581 32.3995 29.3235
Au 18.7662 62.6888 38.8631
Au 18.7709 44.7046 17.6530
Au 18.7799 64.2790 32.6144
Au 18.7847 46.2948 11.4043
Au 18.7868 4.8745 13.2984
Au 18.7888 22.1995 33.8715
Au 18.7937 65.8691 26.3656
Au 18.7944 40.7219 26.9631
Au 18.7984 47.8849 5.1556
Au 18.8050 42.4241 0.3442
Au 18.8074 67.4593 20.1169
Au 18.8195 11.9994 38.4194
Au 18.8212 69.0494 13.8682
Au 18.8251 30.5219 31.5110
Au 18.8271 46.1496 2.0027
Au 18.8349 70.6396 7.6195
Au 18.8483 1.9420 6.0472
Au 18.8486 72.2298 1.3708
Au 18.8538 2.9968 15.4858
Au 18.8557 20.3218 36.0589
Au 18.8613 38.8443 29.1505
Au 18.8659 54.0511 39.3265
Au 18.8705 5.6675 7.7057
Au 18.8797 55.6412 33.0778
Au 18.8901 11.3192 13.1253
Au 18.8920 28.6442 33.6985
Au 18.8927 9.3930 9.3641
Au 18.8934 57.2314 26.8291
Au 18.9072 58.8215 20.5804
Au 18.9149 13.1184 11.0226
Au 18.9162 78.3959 35.5418
Au 18.9207 1.1192 17.6733
Au 18.9209 60.4117 14.3317
Au 18.9227 18.4442 38.2464
Au 18.9283 36.9666 31.3380
Au 18.9299 79.9861 29.2930
Au 18.9347 62.0019 8.0830
Au 18.9484 63.5920 1.8343
Au 18.9570 9.4416 15.3128
Au 18.9590 26.7666 35.8859
Au 18.9794 47.0035 33.5413
Au 18.9932 48.5937 27.2926
Au 18.9933 17.7640 12.9523
Au 18.9953 35.0890 33.5254
Au 19.0069 50.1838 21.0439
Au 19.0093 3.1121 3.4167
Au 19.0159 69.7582 36.0052
Au 19.0207 51.7740 14.7952
Au 19.0240 7.5639 17.5003
Au 19.0260 24.8889 38.0734
Au 19.0297 71.3483 29.7565
Au 19.0315 6.8376 5.0751
Au 19.0316 43.4113 31.1650
Au 19.0344 53.3641 8.5464
Au 19.0434 72.9385 23.5078
Au 19.0481 54.9543 2.2977
Au 19.0537 10.5631 6.7335
Au 19.0572 74.5286 17.2591
Au 19.0603 15.8863 15.1398
Au 19.0623 33.2113 35.7129
Au 19.0709 76.1188 11.0104
Au 19.0759 14.2885 8.3920
Au 19.0846 77.7089 4.7617
Au 19.0910 5.6863 19.6877
Au 19.0966 24.2087 12.7793
Au 19.0985 41.5337 33.3524
Au 19.1157 61.1204 36.4687
Au 19.1272 14.0086 17.3272
Au 19.1292 31.3336 37.9004
Au 19.1294 62.7106 30.2200
Au 19.1432 64.3007 23.9713
Au 19.1569 65.8909 17.7226
Au 19.1579 3.8086 21.8752
Au 19.1635 22.3310 14.9668
Au 19.1655 39.6560 35.5399
Au 19.1703 4.2822 0.7861
Au 19.1706 67.4810 11.4738
Au 19.1844 69.0712 5.2251
Au 19.1925 8.0077 2.4445
Au 19.1942 12.1310 19.5147
Au 19.1998 30.6534 12.6063
Au 19.2147 11.7331 4.1030
Au 19.2154 52.4827 36.9322
Au 19.2249 1.9309 24.0626
Au 19.2292 54.0728 30.6835
Au 19.2305 20.4534 17.1542
Au 19.2325 37.7784 37.7273
Au 19.2369 15.4586 5.7614
Au 19.2429 55.6630 24.4347
Au 19.2519 75.2374 39.3961
Au 19.2567 57.2531 18.1860
Au 19.2591 19.1841 7.4198
Au 19.2612 10.2533 21.7021
Au 19.2657 76.8275 33.1474
Au 19.2668 28.7758 14.7937
Au 19.2704 58.8433 11.9373
Au 19.2794 78.4177 26.8987
Au 19.2813 22.9096 9.0783
Au 19.2841 60.4335 5.6886
Au 19.2919 0.0533 26.2501
Au 19.2975 18.5757 19.3417
Au 19.2994 35.9007 39.9148
Au 19.3031 37.0982 12.4332
Au 19.3035 26.6350 10.7367
Au 19.3281 8.3757 23.8896
Au 19.3337 26.8981 16.9812
Au 19.3357 44.2231 37.5543
Au 19.3427 47.0253 24.8982
Au 19.3517 66.5996 39.8596
Au 19.3564 48.6154 18.6495
Au 19.3644 16.6981 21.5291
Au 19.3654 68.1898 33.6109
Au 19.3700 35.2205 14.6207
Au 19.3701 50.2056 12.4008
Au 19.3757 12.9032 1.4724
Au 19.3792 69.7799 27.3621
Au 19.3839 51.7957 6.1521
Au 19.3929 71.3701 21.1134
Au 19.3951 6.4980 26.0771
Au 19.3979 16.6287 3.1308
Au 19.4007 25.0205 19.1686
Au 19.4027 42.3455 39.7418
Au 19.4066 72.9602 14.8647
Au 19.4201 20.3542 4.7892
Au 19.4204 74.5504 8.6160
Au 19.4314 14.8204 23.7166
Au 19.4341 76.1405 2.3673
Au 19.4370 33.3429 16.8082
Au 19.4423 24.0796 6.4477
Au 19.4621 4.6204 28.2645
Au 19.4645 27.8051 8.1061
Au 19.4652 59.5520 34.0743
Au 19.4677 23.1428 21.3561
Au 19.4733 41.6652 14.4477
Au 19.4789 61.1422 27.8256
Au 19.4867 31.5306 9.7646
Au 19.4927 62.7323 21.5769
Au 19.4984 12.9428 25.9040
Au 19.5040 31.4652 18.9956
Au 19.5064 64.3225 15.3282
Au 19.5089 35.2561 11.4230
Au 19.5201 65.9126 9.0795
Au 19.5291 2.7427 30.4520
Au 19.5339 67.5028 2.8308
Au 19.5347 21.2652 23.5436
Au 19.5403 39.7876 16.6351
Au 19.5589 17.7988 0.5002
Au 19.5649 50.9143 34.5378
Au 19.5653 11.0651 28.0915
Au 19.5709 29.5875 21.1831
Au 19.5787 52.5044 28.2891
Au 19.5811 21.5243 2.1587
Au 19.5924 54.0946 22.0404
Au 19.5960 0.8651 32.6394
Au 19.6014 73.6690 37.0017
Au 19.6016 19.3875 25.7310
Au 19.6033 25.2497 3.8171
Au 19.6061 55.6848 15.7917
Au 19.6072 37.9099 18.8226
Au 19.6152 75.2591 30.7530
Au 19.6199 57.2749 9.5429
Au 19.6255 28.9752 5.4755
Au 19.6289 76.8493 24.5043
Au 19.6323 9.1875 30.2790
Au 19.6336 58.8651 3.2942
Au 19.6379 27.7099 23.3705
Au 19.6426 78.4394 18.2556
Au 19.6477 32.7007 7.1340
Au 19.6686 17.5098 27.9185
Au 19.6699 36.4261 8.7924
Au 19.6742 36.0323 21.0100
Au 19.6921 40.1516 10.4509
Au 19.6993 7.3098 32.4664
Au 19.7012 65.0312 37.4652
Au 19.7049 25.8322 25.5580
Au 19.7059 47.0470 16.2551
Au 19.7143 43.8771 12.1093
Au 19.7149 66.6214 31.2165
Au 19.7196 48.6372 10.0064
Au 19.7287 68.2115 24.9678
Au 19.7334 50.2273 3.7577
Au 19.7356 15.6322 30.1059
Au 19.7412 34.1546 23.1975
Au 19.7424 69.8017 18.7190
Au 19.7561 71.3918 12.4703
Au 19.7643 26.4198 1.1865
Au 19.7662 5.4321 34.6539
Au 19.7699 72.9820 6.2216
Au 19.7718 23.9546 27.7454
Au 19.7774 42.4770 20.8370
Au 19.7865 30.1453 2.8450
Au 19.8009 56.3935 37.9287
Au 19.8025 13.7545 32.2934
Au 19.8081 32.2770 25.3850
Au 19.8087 33.8708 4.5034
Au 19.8147 57.9836 31.6800
Au 19.8284 59.5738 25.4312
Au 19.8309 37.5962 6.1618
Au 19.8332 3.5545 36.8413
Au 19.8388 22.0769 29.9329
Au 19.8421 61.1639 19.1825
Au 19.8444 40.5994 23.0245
Au 19.8531 41.3217 7.8203
Au 19.8559 62.7541 12.9338
Au 19.8695 11.8769 34.4808
Au 19.8696 64.3442 6.6851
Au 19.8751 30.3993 27.5724
Au 19.8753 45.0472 9.4787
Au 19.8834 65.9344 0.4364
Au 19.9002 1.6768 39.0288
Au 19.9007 47.7557 38.3921
Au 19.9058 20.1993 32.1204
Au 19.9114 38.7217 25.2119
Au 19.9144 49.3459 32.1434
Au 19.9281 50.9360 25.8947
Au 19.9365 9.9992 36.6683
Au 19.9419 52.5262 19.6460
Au 19.9421 28.5217 29.7599
Au 19.9475 31.3154 0.2144
Au 19.9509 72.1006 34.6073
Au 19.9556 54.1164 13.3973
Au 19.9647 73.6907 28.3586
Au 19.9694 55.7065 7.1486
Au 19.9697 35.0408 1.8728
Au 19.9708 0.9966 13.7347
Au 19.9727 18.3216 34.3078
Au 19.9783 36.8440 27.3994
Au 19.9784 75.2809 22.1099
Au 19.9831 57.2967 0.8999
Au 19.9919 38.7663 3.5313
Au 19.9921 76.8710 15.8612
Au 20.0034 8.1216 38.8558
Au 20.0059 78.4612 9.6125
Au 20.0090 26.6440 31.9473
Au 20.0141 42.4918 5.1897
Au 20.0146 45.1664 25.0389
Au 20.0363 46.2173 6.8481
Au 20.0397 16.4440 36.4953
Au 20.0453 34.9664 29.5868
Au 20.0507 63.4628 35.0708
Au 20.0554 45.4786 13.8608
Au 20.0574 2.0097 10.8927
Au 20.0644 65.0530 28.8221
Au 20.0740 7.4413 13.5617
Au 20.0760 24.7663 34.1348
Au 20.0781 66.6431 22.5734
Au 20.0816 43.2888 27.2264
Au 20.0919 68.2333 16.3247
Au 20.1056 69.8234 10.0760
Au 20.1067 14.5663 38.6827
Au 20.1123 33.0887 31.7743
Au 20.1194 71.4136 3.8272
Au 20.1410 5.5637 15.7491
Au 20.1430 22.8887 36.3222
Au 20.1486 41.4111 29.4138
Au 20.1504 54.8251 35.5343
Au 20.1529 39.9364 0.9007
Au 20.1641 56.4152 29.2856
Au 20.1751 43.6619 2.5591
Au 20.1773 13.8861 13.3886
Au 20.1779 58.0054 23.0369
Au 20.1793 31.2111 33.9618
Au 20.1869 77.5798 37.9982
Au 20.1916 59.5955 16.7881
Au 20.2006 79.1699 31.7495
Au 20.2054 61.1857 10.5394
Au 20.2080 3.6860 17.9366
Au 20.2099 21.0110 38.5097
Au 20.2155 39.5335 31.6013
Au 20.2184 3.1798 8.2621
Au 20.2191 62.7758 4.2907
Au 20.2406 6.9053 9.9206
Au 20.2442 12.0084 15.5761
Au 20.2462 29.3334 36.1492
Au 20.2628 10.6308 11.5790
Au 20.2639 47.7775 29.7491
Au 20.2749 1.8084 20.1240
Au 20.2776 49.3676 23.5003
Au 20.2805 20.3308 13.2156
Au 20.2825 37.6558 33.7887
Au 20.2867 68.9420 38.4617
Au 20.2914 50.9578 17.2516
Au 20.3004 70.5322 32.2130
Au 20.3051 52.5480 11.0029
Au 20.3112 10.1308 17.7636
Au 20.3132 27.4558 38.3367
Au 20.3141 72.1223 25.9643
Au 20.3188 45.9782 31.4283
Au 20.3189 54.1381 4.7542
Au 20.3279 73.7125 19.7155
Au 20.3416 75.3026 13.4668
Au 20.3475 18.4532 15.4031
Au 20.3495 35.7782 35.9762
Au 20.3554 76.8928 7.2181
Au 20.3572 0.6244 3.9731
Au 20.3583 48.5574 1.5870
Au 20.3691 78.4829 0.9694
Au 20.3782 8.2531 19.9510
Au 20.3794 4.3499 5.6315
Au 20.3838 26.7756 13.0426
Au 20.3858 44.1006 33.6157
Au 20.3864 60.3043 38.9252
Au 20.4001 61.8944 32.6764
Au 20.4016 8.0754 7.2900
Au 20.4139 63.4846 26.4277
Au 20.4145 16.5755 17.5905
Au 20.4164 33.9005 38.1636
Au 20.4238 11.8009 8.9484
Au 20.4276 65.0747 20.1790
Au 20.4414 66.6649 13.9303
Au 20.4452 6.3755 22.1385
Au 20.4460 15.5263 10.6069
Au 20.4508 24.8979 15.2301
Au 20.4527 42.2229 35.8032
Au 20.4551 68.2550 7.6816
Au 20.4688 69.8452 1.4329
Au 20.4814 14.6979 19.7780
Au 20.4862 51.6665 39.3886
Au 20.4999 53.2567 33.1399
Au 20.5121 4.4978 24.3259
Au 20.5136 54.8468 26.8912
Au 20.5177 23.0202 17.4175
Au 20.5183 1.7945 1.3425
Au 20.5197 40.3452 37.9906
Au 20.5274 56.4370 20.6425
Au 20.5364 76.0114 35.6038
Au 20.5404 5.5200 3.0009
Au 20.5411 58.0271 14.3938
Au 20.5484 12.8202 21.9654
Au 20.5501 77.6015 29.3551
Au 20.5540 31.3426 15.0570
Au 20.5549 59.6173 8.1451
Au 20.5626 9.2455 4.6594
Au 20.5639 79.1917 23.1064
Au 20.5686 61.2075 1.8963
Au 20.5791 2.6202 26.5134
Au 20.5847 21.1426 19.6050
Au 20.5848 12.9709 6.3178
Au 20.6070 16.6964 7.9763
Au 20.6134 46.2091 27.3547
Au 20.6154 10.9425 24.1529
Au 20.6210 29.4650 17.2445
Au 20.6271 47.7992 21.1060
Au 20.6292 20.4219 9.6347
Au 20.6361 67.3736 36.0673
Au 20.6409 49.3894 14.8572
Au 20.6461 0.7425 28.7008
Au 20.6499 68.9638 29.8186
Au 20.6514 24.1474 11.2932
Au 20.6517 19.2649 21.7924
Au 20.6546 50.9796 8.6085
Au 20.6573 37.7874 14.8840
Au 20.6636 70.5539 23.5699
Au 20.6683 52.5697 2.3598
Au 20.6774 72.1441 17.3212
Au 20.6823 9.0649 26.3404
Au 20.6879 27.5873 19.4319
Au 20.6911 73.7342 11.0725
Au 20.7014 6.6901 0.3703
Au 20.7048 75.3244 4.8237
Au 20.7186 17.3873 23.9799
Au 20.7236 10.4155 2.0288
Au 20.7242 35.9097 17.0715
Au 20.7359 58.7359 36.5308
Au 20.7458 14.1410 3.6872
Au 20.7493 7.1872 28.5278
Au 20.7496 60.3260 30.2821
Au 20.7549 25.7097 21.6194
Au 20.7634 61.9162 24.0334
Au 20.7680 17.8665 5.3457
Au 20.7771 63.5063 17.7846
Au 20.7856 15.5096 26.1673
Au 20.7902 21.5920 7.0041
Au 20.7909 65.0965 11.5359
Au 20.7912 34.0321 19.2589
Au 20.8046 66.6866 5.2872
Au 20.8124 25.3174 8.6626
Au 20.8163 5.3096 30.7153
Au 20.8219 23.8320 23.8069
Au 20.8275 42.3544 16.8984
Au 20.8346 29.0429 10.3210
Au 20.8356 50.0981 36.9943
Au 20.8494 51.6883 30.7455
Au 20.8526 13.6320 28.3548
Au 20.8568 32.7684 11.9795
Au 20.8582 32.1544 21.4464
Au 20.8631 53.2784 24.4968
Au 20.8721 72.8528 39.4582
Au 20.8769 54.8686 18.2481
Au 20.8832 3.4319 32.9027
Au 20.8859 74.4430 33.2095
Au 20.8888 21.9544 25.9943
Au 20.8906 56.4587 11.9994
Au 20.8944 40.4768 19.0859
Au 20.8996 76.0331 26.9608
Au 20.9043 58.0489 5.7507
Au 20.9068 15.3111 1.0566
Au 20.9134 77.6233 20.7120
Au 20.9195 11.7543 30.5423
Au 20.9251 30.2767 23.6338
Au 20.9271 79.2134 14.4633
Au 20.9290 19.0366 2.7151
Au 20.9502 1.5543 35.0902
Au 20.9512 22.7621 4.3735
Au 20.9558 20.0767 28.1818
Au 20.9614 38.5991 21.2733
Au 20.9719 64.2151 39.9217
Au 20.9734 26.4875 6.0320
Au 20.9766 46.2308 18.7116
Au 20.9856 65.8052 33.6729
Au 20.9865 9.8767 32.7297
Au 20.9903 47.8210 12.4629
Au 20.9921 28.3991 25.8213
Au 20.9956 30.2130 7.6904
Au 20.9994 67.3954 27.4242
Au 21.0041 49.4112 6.2142
Au 21.0131 68.9855 21.1755
Au 21.0178 33.9385 9.3489
Au 21.0228 18.1990 30.3692
Au 21.0269 70.5757 14.9268
Au 21.0284 36.7215 23.4608
Au 21.0400 37.6639 11.0073
Au 21.0406 72.1658 8.6781
Au 21.0535 7.9990 34.9172
Au 21.0543 73.7560 2.4294
Au 21.0591 26.5214 28.0087
Au 21.0622 41.3894 12.6658
Au 21.0647 45.0439 21.1003
Au 21.0854 57.1675 34.1364
Au 21.0898 16.3214 32.5567
Au 21.0900 20.2067 0.0845
Au 21.0954 34.8438 25.6483
Au 21.0991 58.7576 27.8877
Au 21.1122 23.9321 1.7429
Au 21.1129 60.3478 21.6390
Au 21.1204 6.1213 37.1046
Au 21.1219 79.9222 36.6003
Au 21.1260 24.6438 30.1962
Au 21.1266 61.9379 15.3903
Au 21.1316 43.1662 23.2878
Au 21.1344 27.6576 3.4014
Au 21.1403 63.5281 9.1416
Au 21.1541 65.1182 2.8928
Au 21.1566 31.3831 5.0598
Au 21.1567 14.4437 34.7441
Au 21.1623 32.9662 27.8357
Au 21.1788 35.1086 6.7183
Au 21.1851 48.5297 34.5999
Au 21.1874 4.2437 39.2921
Au 21.1930 22.7661 32.3837
Au 21.1986 41.2886 25.4752
Au 21.1989 50.1199 28.3512
Au 21.2010 38.8340 8.3767
Au 21.2126 51.7100 22.1025
Au 21.2216 71.2844 37.0638
Au 21.2232 42.5595 10.0352
Au 21.2237 12.5661 36.9316
Au 21.2263 53.3002 15.8537
Au 21.2293 31.0885 30.0232
Au 21.2354 72.8746 30.8151
Au 21.2401 54.8903 9.6050
Au 21.2491 74.4647 24.5664
Au 21.2538 56.4805 3.3563
Au 21.2580 3.5635 13.9980
Au 21.2600 20.8885 34.5711
Au 21.2629 76.0549 18.3177
Au 21.2656 39.4109 27.6627
Au 21.2766 77.6450 12.0689
Au 21.2903 79.2352 5.8202
Au 21.2907 10.6884 39.1191
Au 21.2954 28.8277 0.7708
Au 21.2963 29.2109 32.2106
Au 21.3176 32.5532 2.4292
Au 21.3214 62.6467 37.5273
Au 21.3250 1.6858 16.1855
Au 21.3269 19.0108 36.7586
Au 21.3325 37.5333 29.8501
Au 21.3351 64.2368 31.2786
Au 21.3398 36.2786 4.0877
Au 21.3489 65.8270 25.0299
Au 21.3613 10.0082 13.8250
Au 21.3620 40.0041 5.7461
Au 21.3626 67.4171 18.7811
Au 21.3632 27.3332 34.3981
Au 21.3763 69.0073 12.5324
Au 21.3842 43.7296 7.4046
Au 21.3901 70.5974 6.2837
Au 21.3939 17.1332 38.9460
Au 21.3995 35.6556 32.0376
Au 21.4038 72.1876 0.0350
Au 21.4064 47.4551 9.0630
Au 21.4211 54.0089 37.9908
Au 21.4282 8.1306 16.0124
Au 21.4302 25.4556 36.5855
Au 21.4349 55.5991 31.7420
Au 21.4358 43.9780 29.6771
Au 21.4486 57.1892 25.4933
Au 21.4623 58.7794 19.2446
Au 21.4665 33.7779 34.2251
Au 21.4714 78.3538 34.2060
Au 21.4761 60.3695 12.9959
Au 21.4851 79.9439 27.9572
Au 21.4898 61.9597 6.7472
Au 21.4952 6.2529 18.1999
Au 21.4972 23.5779 38.7730
Au 21.5008 37.4487 1.4571
Au 21.5028 42.1003 31.8646
Au 21.5036 63.5498 0.4985
Au 21.5230 41.1742 3.1155
Au 21.5315 14.5753 15.8394
Au 21.5334 31.9003 36.4125
Au 21.5452 44.8997 4.7740
Au 21.5484 48.5515 25.9568
Au 21.5621 50.1416 19.7081
Au 21.5622 4.3752 20.3873
Au 21.5664 0.6921 8.8186
Au 21.5697 40.2227 34.0520
Au 21.5711 69.7160 34.6694
Au 21.5758 51.7318 13.4594
Au 21.5849 71.3062 28.4207
Au 21.5886 4.4176 10.4770
Au 21.5896 53.3219 7.2107
Au 21.5984 12.6976 18.0269
Au 21.5986 72.8963 22.1720
Au 21.6004 30.0226 38.6000
Au 21.6033 54.9121 0.9619
Au 21.6107 8.1431 12.1354
Au 21.6123 74.4865 15.9233
Au 21.6261 76.0766 9.6746
Au 21.6291 2.4976 22.5748
Au 21.6329 11.8686 13.7939
Au 21.6347 21.0200 15.6664
Au 21.6367 38.3450 36.2395
Au 21.6398 77.6668 3.4259
Au 21.6654 10.8200 20.2143
Au 21.6709 61.0783 35.1329
Au 21.6840 42.3443 0.4849
Au 21.6846 62.6684 28.8842
Au 21.6961 0.6199 24.7623
Au 21.6983 64.2586 22.6355
Au 21.7017 19.1424 17.8538
Au 21.7037 36.4674 38.4269
Au 21.7062 46.0698 2.1434
Au 21.7121 65.8487 16.3868
Au 21.7258 67.4389 10.1380
Au 21.7274 1.8622 6.1880
Au 21.7284 49.7952 3.8018
Au 21.7324 8.9423 22.4018
Au 21.7380 27.4648 15.4933
Au 21.7396 69.0290 3.8893
Au 21.7400 44.7898 36.0665
Au 21.7496 5.5877 7.8464
Au 21.7687 17.2647 20.0413
Au 21.7706 52.4405 35.5964
Au 21.7717 9.3132 9.5049
Au 21.7843 54.0307 29.3477
Au 21.7939 13.0386 11.1633
Au 21.7981 55.6208 23.0989
Au 21.7993 7.0647 24.5892
Au 21.8049 25.5871 17.6808
Au 21.8069 42.9121 38.2539
Au 21.8071 75.1952 38.0603
Au 21.8118 57.2110 16.8502
Au 21.8161 16.7641 12.8217
Au 21.8209 76.7854 31.8116
Au 21.8256 58.8011 10.6015
Au 21.8346 78.3755 25.5629
Au 21.8356 15.3871 22.2287
Au 21.8393 60.3913 4.3528
Au 21.8412 33.9095 15.3203
Au 21.8483 79.9657 19.3142
Au 21.8663 5.1870 26.7767
Au 21.8719 23.7094 19.8683
Au 21.8884 3.0323 3.5574
Au 21.8894 50.9653 1.1712
Au 21.8978 46.9831 23.5624
Au 21.9026 13.5094 24.4162
Au 21.9069 66.5575 38.5238
Au 21.9082 32.0318 17.5078
Au 21.9106 6.7578 5.2158
Au 21.9116 48.5732 17.3137
Au 21.9206 68.1476 32.2751
Au 21.9253 50.1634 11.0650
Au 21.9327 10.4833 6.8743
Au 21.9333 3.3094 28.9641
Au 21.9343 69.7378 26.0263
Au 21.9389 21.8318 22.0557
Au 21.9391 51.7535 4.8163
Au 21.9445 40.3542 15.1473
Au 21.9481 71.3279 19.7776
Au 21.9549 14.2087 8.5327
Au 21.9618 72.9181 13.5289
Au 21.9696 11.6317 26.6037
Au 21.9752 30.1542 19.6952
Au 21.9756 74.5082 7.2802
Au 21.9771 17.9342 10.1912
Au 21.9893 76.0984 1.0315
Au 21.9993 21.6597 11.8496
Au 22.0002 1.4317 31.1516
Au 22.0059 19.9541 24.2432
Au 22.0066 57.9197 38.9872
Au 22.0115 38.4766 17.3348
Au 22.0203 59.5099 32.7385
Au 22.0215 25.3852 13.5080
Au 22.0341 61.1000 26.4898
Au 22.0365 9.7541 28.7911
Au 22.0421 28.2765 21.8827
Au 22.0478 62.6902 20.2411
Au 22.0494 4.2024 0.9268
Au 22.0616 64.2803 13.9924
Au 22.0716 7.9279 2.5852
Au 22.0728 18.0765 26.4306
Au 22.0753 65.8705 7.7437
Au 22.0784 36.5989 19.5222
Au 22.0891 67.4606 1.4950
Au 22.0938 11.6533 4.2437
Au 22.1035 7.8764 30.9786
Au 22.1064 49.2820 39.4507
Au 22.1091 26.3989 24.0702
Au 22.1147 44.9213 17.1617
Au 22.1159 15.3788 5.9021
Au 22.1201 50.8721 33.2020
Au 22.1338 52.4623 26.9533
Au 22.1381 19.1043 7.5606
Au 22.1398 16.1988 28.6181
Au 22.1454 34.7213 21.7097
Au 22.1476 54.0524 20.7046
Au 22.1566 73.6268 35.6659
Au 22.1603 22.8298 9.2190
Au 22.1613 55.6426 14.4559
Au 22.1703 75.2170 29.4172
Au 22.1705 5.9988 33.1660
Au 22.1751 57.2327 8.2071
Au 22.1761 24.5212 26.2576
Au 22.1817 43.0437 19.3492
Au 22.1825 26.5552 10.8775
Au 22.1841 76.8071 23.1685
Au 22.1888 58.8229 1.9584
Au 22.1978 78.3973 16.9198
Au 22.2047 30.2807 12.5359
Au 22.2068 14.3212 30.8055
Au 22.2116 79.9874 10.6711
Au 22.2124 32.8436 23.8971
Au 22.2374 4.1211 35.3535
Au 22.2430 22.6436 28.4451
Au 22.2486 41.1660 21.5366
Au 22.2548 12.8234 1.6131
Au 22.2563 64.9891 36.1294
Au 22.2611 47.0048 14.9193
Au 22.2701 66.5792 29.8807
Au 22.2737 12.4435 32.9930
Au 22.2769 16.5489 3.2715
Au 22.2793 30.9660 26.0846
Au 22.2838 68.1694 23.6320
Au 22.2976 69.7595 17.3833
Au 22.2991 20.2744 4.9300
Au 22.3044 2.2435 37.5409
Au 22.3100 20.7659 30.6325
Au 22.3113 71.3497 11.1345
Au 22.3156 39.2883 23.7241
Au 22.3213 23.9999 6.5884
Au 22.3251 72.9398 4.8858
Au 22.3407 10.5659 35.1805
Au 22.3435 27.7253 8.2469
Au 22.3463 29.0883 28.2720
Au 22.3561 56.3513 36.5929
Au 22.3657 31.4508 9.9053
Au 22.3698 57.9415 30.3442
Au 22.3714 0.3658 39.7284
Au 22.3770 18.8883 32.8200
Au 22.3826 37.4107 25.9116
Au 22.3836 59.5316 24.0954
Au 22.3879 35.1763 11.5637
Au 22.3926 79.1060 39.0568
Au 22.3973 61.1218 17.8467
Au 22.4077 8.6882 37.3679
Au 22.4101 38.9017 13.2222
Au 22.4111 62.7119 11.5980
Au 22.4133 27.2106 30.4595
Au 22.4248 64.3021 5.3493
Au 22.4323 42.6272 14.8806
Au 22.4380 17.7190 0.6409
Au 22.4439 17.0106 35.0074
Au 22.4495 35.5330 28.0990
Au 22.4558 47.7136 37.0563
Au 22.4601 21.4445 2.2994
Au 22.4696 49.3037 30.8076
Au 22.4746 6.8106 39.5554
Au 22.4802 25.3330 32.6470
Au 22.4823 25.1699 3.9578
Au 22.4833 50.8939 24.5589
Au 22.4858 43.8554 25.7385
Au 22.4923 70.4682 39.5203
Au 22.4971 52.4840 18.3102
Au 22.5045 28.8954 5.6163
Au 22.5061 72.0584 33.2716
Au 22.5108 54.0742 12.0615
Au 22.5109 15.1329 37.1949
Au 22.5165 33.6554 30.2865
Au 22.5198 73.6486 27.0228
Au 22.5245 55.6643 5.8128
Au 22.5267 32.6209 7.2747
Au 22.5336 75.2387 20.7741
Au 22.5472 23.4553 34.8344
Au 22.5473 76.8289 14.5254
Au 22.5489 36.3464 8.9332
Au 22.5528 41.9778 27.9260
Au 22.5610 78.4190 8.2767
Au 22.5711 40.0718 10.5916
Au 22.5779 13.2553 39.3824
Au 22.5835 31.7777 32.4739
Au 22.5921 61.8305 39.9837
Au 22.5933 43.7973 12.2500
Au 22.6058 63.4207 33.7350
Au 22.6122 4.2527 16.4488
Au 22.6142 21.5777 37.0219
Au 22.6196 65.0108 27.4863
Au 22.6198 40.1001 30.1134
Au 22.6333 66.6010 21.2376
Au 22.6433 26.3400 1.3272
Au 22.6471 68.1911 14.9889
Au 22.6504 29.9001 34.6614
Au 22.6608 69.7813 8.7402
Au 22.6655 30.0655 2.9857
Au 22.6745 71.3714 2.4915
Au 22.6792 2.3750 18.6362
Au 22.6811 19.7000 39.2093
Au 22.6867 38.2225 32.3009
Au 22.6877 33.7910 4.6441
Au 22.7056 54.7829 34.1985
Au 22.7099 37.5164 6.3026
Au 22.7154 10.6974 16.2757
Au 22.7174 28.0224 36.8488
Au 22.7193 56.3731 27.9498
Au 22.7230 46.5448 29.9404
Au 22.7321 41.2419 7.9610
Au 22.7331 57.9632 21.7011
Au 22.7421 77.5376 36.6624
Au 22.7461 0.4974 20.8237
Au 22.7468 59.5534 15.4524
Au 22.7537 36.3448 34.4884
Au 22.7543 44.9674 9.6195
Au 22.7558 79.1277 30.4137
Au 22.7605 61.1435 9.2036
Au 22.7743 62.7337 2.9549
Au 22.7755 0.7599 13.6640
Au 22.7824 8.8198 18.4632
Au 22.7844 26.1448 39.0363
Au 22.7900 44.6672 32.1279
Au 22.8187 17.1421 16.1027
Au 22.8191 47.7353 28.4133
Au 22.8207 34.4671 36.6758
Au 22.8265 31.2356 0.3551
Au 22.8328 49.3255 22.1645
Au 22.8418 68.8998 37.1259
Au 22.8466 50.9156 15.9158
Au 22.8487 34.9611 2.0135
Au 22.8494 6.9421 20.6506
Au 22.8556 70.4900 30.8772
Au 22.8570 42.7895 34.3153
Au 22.8603 52.5058 9.6671
Au 22.8693 72.0802 24.6285
Au 22.8709 38.6865 3.6720
Au 22.8740 54.0959 3.4184
Au 22.8831 73.6703 18.3797
Au 22.8857 15.2645 18.2902
Au 22.8876 32.5895 38.8633
Au 22.8931 42.4120 5.3304
Au 22.8968 75.2605 12.1310
Au 22.9105 76.8506 5.8823
Au 22.9153 46.1375 6.9889
Au 22.9163 5.0644 22.8381
Au 22.9219 23.5869 15.9297
Au 22.9239 40.9119 36.5028
Au 22.9365 1.9299 11.0334
Au 22.9416 60.2621 37.5894
Au 22.9526 13.3868 20.4776
Au 22.9553 61.8523 31.3407
Au 22.9587 5.6554 12.6919
Au 22.9691 63.4424 25.0919
Au 22.9809 9.3809 14.3503
Au 22.9828 65.0326 18.8432
Au 22.9833 3.1868 25.0256
Au 22.9889 21.7092 18.1171
Au 22.9909 39.0342 38.6902
Au 22.9965 66.6227 12.5945
Au 23.0103 68.2129 6.3458
Au 23.0196 11.5092 22.6651
Au 23.0240 69.8030 0.0971
Au 23.0252 30.0316 15.7566
Au 23.0319 39.8566 1.0414
Au 23.0413 51.6244 38.0528
Au 23.0503 1.3091 27.2130
Au 23.0541 43.5821 2.6998
Au 23.0551 53.2145 31.8041
Au 23.0559 19.8316 20.3046
Au 23.0688 54.8047 25.5554
Au 23.0763 47.3076 4.3583
Au 23.0825 56.3948 19.3067
Au 23.0866 9.6315 24.8525
Au 23.0916 75.9692 34.2680
Au 23.0922 28.1540 17.9441
Au 23.0941 45.4790 38.5172
Au 23.0963 57.9850 13.0580
Au 23.0975 3.1000 8.4028
Au 23.1053 77.5593 28.0193
Au 23.1100 59.5751 6.8093
Au 23.1191 79.1495 21.7706
Au 23.1197 6.8255 10.0613
Au 23.1229 17.9539 22.4920
Au 23.1238 61.1653 0.5606
Au 23.1419 10.5510 11.7197
Au 23.1535 7.7539 27.0400
Au 23.1591 26.2763 20.1316
Au 23.1641 14.2764 13.3782
Au 23.1823 47.7571 19.7702
Au 23.1898 16.0763 24.6795
Au 23.1913 67.3314 34.7315
Au 23.1954 34.5987 17.7711
Au 23.1960 49.3472 13.5215
Au 23.2051 68.9216 28.4828
Au 23.2098 50.9374 7.2727
Au 23.2151 44.7522 0.0692
Au 23.2188 70.5118 22.2341
Au 23.2205 5.8762 29.2274
Au 23.2261 24.3987 22.3190
Au 23.2325 72.1019 15.9854
Au 23.2363 0.5446 4.1138
Au 23.2373 48.4776 1.7277
Au 23.2463 73.6921 9.7367
Au 23.2568 14.1986 26.8670
Au 23.2585 4.2701 5.7722
Au 23.2600 75.2822 3.4879
Au 23.2624 32.7210 19.9585
Au 23.2807 7.9956 7.4307
Au 23.2875 3.9986 31.4149
Au 23.2911 58.6937 35.1950
Au 23.2931 22.5210 24.5065
Au 23.2987 41.0434 17.5981
Au 23.3029 11.7211 9.0891
Au 23.3048 60.2839 28.9463
Au 23.3185 61.8740 22.6976
Au 23.3238 12.3210 29.0544
Au 23.3251 15.4465 10.7476
Au 23.3294 30.8434 22.1460
Au 23.3323 63.4642 16.4488
Au 23.3460 65.0543 10.2001
Au 23.3472 19.1720 12.4060
Au 23.3544 2.1209 33.6024
Au 23.3598 66.6445 3.9514
Au 23.3600 20.6433 26.6939
Au 23.3656 39.1658 19.7855
Au 23.3694 22.8975 14.0645
Au 23.3907 10.4433 31.2419
Au 23.3908 50.0560 35.6585
Au 23.3916 26.6230 15.7229
Au 23.3963 28.9657 24.3334
Au 23.3973 1.7147 1.4832
Au 23.4046 51.6461 29.4098
Au 23.4183 53.2363 23.1610
Au 23.4195 5.4402 3.1417
Au 23.4214 0.2433 35.7898
Au 23.4270 18.7657 28.8814
Au 23.4273 72.8106 38.1224
Au 23.4320 54.8264 16.9123
Au 23.4326 37.2881 21.9730
Au 23.4411 74.4008 31.8737
Au 23.4417 9.1657 4.8001
Au 23.4458 56.4166 10.6636
Au 23.4548 75.9909 25.6250
Au 23.4577 8.5656 33.4293
Au 23.4595 58.0067 4.4149
Au 23.4633 27.0881 26.5209
Au 23.4639 12.8911 6.4585
Au 23.4685 77.5811 19.3762
Au 23.4689 45.6105 19.6125
Au 23.4823 79.1713 13.1275
Au 23.4861 16.6166 8.1170
Au 23.4940 16.8880 31.0688
Au 23.4996 35.4105 24.1604
Au 23.5083 20.3421 9.7754
Au 23.5247 6.6880 35.6168
Au 23.5271 64.1729 38.5859
Au 23.5303 25.2104 28.7084
Au 23.5304 24.0676 11.4339
Au 23.5359 43.7329 21.7999
Au 23.5408 65.7630 32.3371
Au 23.5526 27.7930 13.0923
Au 23.5545 67.3532 26.0884
Au 23.5609 15.0104 33.2563
Au 23.5665 33.5328 26.3479
Au 23.5683 68.9434 19.8397
Au 23.5748 31.5185 14.7508
Au 23.5805 6.6103 0.5111
Au 23.5820 70.5335 13.5910
Au 23.5916 4.8103 37.8042
Au 23.5958 72.1237 7.3423
Au 23.5972 23.3328 30.8958
Au 23.6027 10.3358 2.1695
Au 23.6028 41.8552 23.9874
Au 23.6095 73.7138 1.0936
Au 23.6249 14.0612 3.8280
Au 23.6268 55.5352 39.0493
Au 23.6279 13.1327 35.4438
Au 23.6335 31.6552 28.5353
Au 23.6406 57.1253 32.8006
Au 23.6471 17.7867 5.4864
Au 23.6543 58.7155 26.5519
Au 23.6586 2.9327 39.9917
Au 23.6642 21.4551 33.0833
Au 23.6680 60.3056 20.3032
Au 23.6693 21.5122 7.1448
Au 23.6698 39.9775 26.1749
Au 23.6771 79.8800 35.2645
Au 23.6818 61.8958 14.0545
Au 23.6914 25.2376 8.8033
Au 23.6949 11.2551 37.6312
Au 23.6955 63.4859 7.8058
Au 23.7005 29.7775 30.7228
Au 23.7093 65.0761 1.5570
Au 23.7136 28.9631 10.4617
Au 23.7312 19.5775 35.2707
Au 23.7358 32.6886 12.1202
Au 23.7368 38.0999 28.3623
Au 23.7403 48.4876 33.2641
Au 23.7540 50.0777 27.0154
Au 23.7580 36.4141 13.7786
Au 23.7619 9.3774 39.8187
Au 23.7675 27.8998 32.9103
Au 23.7678 51.6679 20.7667
Au 23.7731 46.4223 26.0018
Au 23.7768 71.2422 35.7280
Au 23.7802 40.1395 15.4371
Au 23.7815 53.2580 14.5179
Au 23.7859 15.2313 1.1974
Au 23.7905 72.8324 29.4793
Au 23.7953 54.8482 8.2692
Au 23.7962 0.3748 16.8851
Au 23.7981 17.6998 37.4582
Au 23.8037 36.2222 30.5498
Au 23.8043 74.4225 23.2306
Au 23.8081 18.9568 2.8558
Au 23.8090 56.4383 2.0205
Au 23.8180 76.0127 16.9819
Au 23.8303 22.6823 4.5143
Au 23.8318 77.6029 10.7332
Au 23.8344 26.0222 35.0977
Au 23.8400 44.5446 28.1893
Au 23.8455 79.1930 4.4844
Au 23.8524 26.4077 6.1727
Au 23.8651 15.8221 39.6456
Au 23.8707 34.3446 32.7372
Au 23.8746 30.1332 7.8311
Au 23.8766 62.6045 36.1915
Au 23.8903 64.1947 29.9428
Au 23.8968 33.8587 9.4896
Au 23.8994 6.8195 16.7121
Au 23.9014 24.1445 37.2852
Au 23.9040 65.7848 23.6941
Au 23.9070 42.6670 30.3767
Au 23.9178 67.3750 17.4453
Au 23.9190 37.5842 11.1480
Au 23.9315 68.9651 11.1966
Au 23.9377 32.4669 34.9247
Au 23.9412 41.3096 12.8065
Au 23.9453 70.5553 4.9479
Au 23.9634 45.0351 14.4649
Au 23.9664 4.9419 18.8995
Au 23.9684 22.2669 39.4726
Au 23.9691 20.1269 0.2252
Au 23.9740 40.7893 32.5642
Au 23.9763 53.9668 36.6550
Au 23.9900 55.5569 30.4062
Au 23.9913 23.8523 1.8837
Au 24.0027 13.2643 16.5390
Au 24.0038 57.1471 24.1575
Au 24.0046 30.5893 37.1121
Au 24.0128 76.7214 39.1189
Au 24.0135 27.5778 3.5421
Au 24.0175 58.7372 17.9088
Au 24.0265 78.3116 32.8702
Au 24.0313 60.3274 11.6601
Au 24.0334 3.0642 21.0870
Au 24.0356 31.3033 5.2005
Au 24.0403 79.9017 26.6215
Au 24.0409 38.9117 34.7517
Au 24.0450 61.9175 5.4114
Au 24.0578 35.0288 6.8590
Au 24.0696 11.3866 18.7265
Au 24.0716 28.7116 39.2996
Au 24.0800 38.7542 8.5174
Au 24.1003 1.1866 23.2744
Au 24.1022 42.4797 10.1759
Au 24.1035 48.5093 24.6210
Au 24.1079 37.0340 36.9391
Au 24.1125 68.0837 39.5824
Au 24.1173 50.0995 18.3723
Au 24.1244 46.2052 11.8343
Au 24.1263 69.6738 33.3336
Au 24.1310 51.6896 12.1236
Au 24.1366 9.5090 20.9139
Au 24.1400 71.2640 27.0849
Au 24.1442 45.3564 34.5786
Au 24.1447 53.2798 5.8749
Au 24.1456 1.9977 15.8789
Au 24.1538 72.8541 20.8362
Au 24.1675 74.4443 14.5875
Au 24.1729 17.8314 18.5535
Au 24.1745 28.7479 0.9115
Au 24.1749 35.1564 39.1266
Au 24.1813 76.0345 8.3388
Au 24.1950 77.6246 2.0901
Au 24.1966 32.4734 2.5700
Au 24.2036 7.6313 23.1014
Au 24.2111 43.4787 36.7661
Au 24.2188 36.1989 4.2284
Au 24.2260 61.0361 33.7971
Au 24.2398 62.6263 27.5484
Au 24.2399 15.9537 20.7409
Au 24.2410 39.9243 5.8868
Au 24.2535 64.2164 21.2997
Au 24.2632 43.6498 7.5453
Au 24.2673 65.8066 15.0510
Au 24.2705 5.7537 25.2889
Au 24.2761 24.2761 18.3804
Au 24.2781 41.6011 38.9535
Au 24.2810 67.3967 8.8023
Au 24.2854 47.3753 9.2037
Au 24.2947 68.9869 2.5535
Au 24.3066 3.1677 13.2483
Au 24.3068 14.0760 22.9284
Au 24.3258 52.3984 34.2606
Au 24.3288 6.8932 14.9068
Au 24.3375 3.8760 27.4763
Au 24.3395 53.9885 28.0119
Au 24.3431 22.3984 20.5679
Au 24.3533 55.5787 21.7632
Au 24.3623 75.1530 36.7245
Au 24.3670 57.1688 15.5144
Au 24.3738 12.1984 25.1158
Au 24.3760 76.7432 30.4758
Au 24.3794 30.7208 18.2074
Au 24.3798 37.3689 1.5978
Au 24.3807 58.7590 9.2657
Au 24.3814 48.0458 38.7805
Au 24.3898 78.3333 24.2271
Au 24.3945 60.3491 3.0170
Au 24.4020 41.0944 3.2563
Au 24.4035 79.9235 17.9784
Au 24.4045 1.9983 29.6638
Au 24.4101 20.5208 22.7553
Au 24.4242 44.8199 4.9147
Au 24.4408 10.3207 27.3033
Au 24.4454 0.6124 8.9593
Au 24.4464 28.8432 20.3949
Au 24.4464 48.5454 6.5731
Au 24.4620 66.5153 37.1880
Au 24.4668 48.5311 15.9779
Au 24.4676 4.3378 10.6177
Au 24.4714 0.1207 31.8512
Au 24.4758 68.1054 30.9393
Au 24.4770 18.6431 24.9428
Au 24.4826 37.1656 18.0344
Au 24.4895 69.6956 24.6906
Au 24.4898 8.0633 12.2762
Au 24.5033 71.2857 18.4418
Au 24.5077 8.4431 29.4907
Au 24.5120 11.7888 13.9346
Au 24.5133 26.9655 22.5823
Au 24.5170 72.8759 12.1931
Au 24.5307 74.4661 5.9444
Au 24.5342 15.5142 15.5931
Au 24.5440 16.7655 27.1303
Au 24.5496 35.2879 20.2218
Au 24.5618 57.8775 37.6515
Au 24.5630 42.2645 0.6257
Au 24.5747 6.5654 31.6782
Au 24.5755 59.4677 31.4027
Au 24.5803 25.0879 24.7698
Au 24.5852 45.9900 2.2841
Au 24.5859 43.6103 17.8614
Au 24.5893 61.0579 25.1540
Au 24.6030 62.6480 18.9053
Au 24.6064 1.7824 6.3287
Au 24.6074 49.7154 3.9426
Au 24.6110 14.8878 29.3177
Au 24.6166 33.4102 22.4093
Au 24.6167 64.2382 12.6566
Au 24.6286 5.5079 7.9871
Au 24.6305 65.8283 6.4079
Au 24.6417 4.6878 33.8657
Au 24.6442 67.4185 0.1592
Au 24.6473 23.2102 26.9572
Au 24.6508 9.2334 9.6456
Au 24.6529 41.7326 20.0488
Au 24.6730 12.9589 11.3040
Au 24.6753 50.8300 31.8662
Au 24.6780 13.0102 31.5052
Au 24.6836 31.5326 24.5967
Au 24.6890 52.4201 25.6175
Au 24.6952 16.6843 12.9625
Au 24.7028 54.0103 19.3688
Au 24.7086 2.8101 36.0531
Au 24.7118 73.5846 34.3301
Au 24.7142 21.3325 29.1447
Au 24.7165 55.6004 13.1201
Au 24.7174 20.4098 14.6209
Au 24.7198 39.8550 22.2363
Au 24.7255 75.1748 28.0814
Au 24.7302 57.1906 6.8714
Au 24.7393 76.7649 21.8327
Au 24.7396 24.1353 16.2794
Au 24.7440 58.7807 0.6226
Au 24.7449 11.1325 33.6926
Au 24.7505 29.6549 26.7842
Au 24.7530 78.3551 15.5840
Au 24.7667 79.9452 9.3353
Au 24.7674 2.9525 3.6981
Au 24.7684 50.8855 1.3120
Au 24.7756 0.9325 38.2406
Au 24.7812 19.4549 31.3321
Au 24.7868 37.9773 24.4237
Au 24.7896 6.6780 5.3565
Au 24.8115 64.9469 34.7936
Au 24.8118 10.4035 7.0150
Au 24.8119 9.2548 35.8801
Au 24.8175 27.7773 28.9717
Au 24.8231 46.2997 22.0632
Au 24.8253 66.5370 28.5449
Au 24.8340 14.1289 8.6734
Au 24.8390 68.1272 22.2962
Au 24.8482 17.5772 33.5196
Au 24.8527 69.7174 16.0475
Au 24.8538 36.0997 26.6112
Au 24.8562 17.8544 10.3319
Au 24.8665 71.3075 9.7987
Au 24.8784 21.5799 11.9903
Au 24.8789 7.3772 38.0675
Au 24.8802 72.8977 3.5500
Au 24.8845 25.8996 31.1591
Au 24.8901 44.4221 24.2507
Au 24.9006 25.3054 13.6488
Au 24.9113 56.3091 35.2571
Au 24.9151 15.6996 35.7071
Au 24.9207 34.2220 28.7986
Au 24.9227 29.0308 15.3072
Au 24.9250 57.8993 29.0084
Au 24.9284 4.1226 1.0675
Au 24.9388 59.4895 22.7597
Au 24.9449 32.7563 16.9657
Au 24.9478 79.0638 37.7210
Au 24.9506 7.8481 2.7259
Au 24.9514 24.0220 33.3466
Au 24.9525 61.0796 16.5109
Au 24.9570 42.5444 26.4382
Au 24.9662 62.6698 10.2622
Au 24.9728 11.5736 4.3844
Au 24.9800 64.2599 4.0135
Au 24.9821 13.8219 37.8945
Au 24.9877 32.3444 30.9861
Au 24.9950 15.2990 6.0428
Au 25.0172 19.0245 7.7013
Au 25.0184 22.1443 35.5340
Au 25.0240 40.6668 28.6256
Au 25.0248 49.2616 29.4718
Au 25.0385 50.8517 23.2231
Au 25.0394 22.7500 9.3597
Au 25.0475 70.4261 38.1845
Au 25.0522 52.4419 16.9744
Au 25.0547 30.4667 33.1736
Au 25.0613 72.0162 31.9358
Au 25.0616 26.4754 11.0182
Au 25.0660 54.0320 10.7257
Au 25.0750 73.6064 25.6870
Au 25.0797 55.6222 4.4770
Au 25.0834 2.9417 17.1484
Au 25.0838 30.2009 12.6766
Au 25.0854 20.2667 37.7215
Au 25.0887 75.1965 19.4383
Au 25.0910 38.7891 30.8131
Au 25.1025 76.7867 13.1896
Au 25.1059 33.9264 14.3351
Au 25.1116 9.0182 0.0953
Au 25.1162 78.3768 6.9409
Au 25.1216 28.5891 35.3610
Au 25.1272 47.1115 28.4526
Au 25.1281 37.6519 15.9935
Au 25.1300 79.9670 0.6922
Au 25.1338 12.7436 1.7538
Au 25.1473 61.7883 38.6479
Au 25.1504 1.0640 19.3358
Au 25.1523 18.3890 39.9089
Au 25.1560 16.4691 3.4122
Au 25.1579 36.9114 33.0005
Au 25.1610 63.3785 32.3992
Au 25.1747 64.9686 26.1505
Au 25.1782 20.1946 5.0707
Au 25.1885 66.5588 19.9018
Au 25.1886 26.7114 37.5485
Au 25.1942 45.2338 30.6400
Au 25.2004 23.9201 6.7291
Au 25.2022 68.1490 13.6531
Au 25.2160 69.7391 7.4044
Au 25.2226 27.6455 8.3876
Au 25.2249 35.0338 35.1880
Au 25.2297 71.3293 1.1557
Au 25.2448 31.3710 10.0460
Au 25.2470 53.1506 39.1114
Au 25.2536 7.5087 19.1628
Au 25.2556 24.8337 39.7359
Au 25.2608 54.7407 32.8627
Au 25.2612 43.3562 32.8275
Au 25.2669 35.0965 11.7045
Au 25.2745 56.3309 26.6140
Au 25.2882 57.9211 20.3653
Au 25.2891 38.8220 13.3629
Au 25.2919 33.1561 37.3754
Au 25.2973 77.4954 35.3266
Au 25.3020 59.5112 14.1166
Au 25.3110 79.0856 29.0779
Au 25.3113 42.5474 15.0214
Au 25.3157 61.1014 7.8678
Au 25.3170 17.6392 0.7816
Au 25.3206 5.6311 21.3503
Au 25.3282 41.4785 35.0150
Au 25.3295 62.6915 1.6191
Au 25.3335 46.2729 16.6798
Au 25.3392 21.3647 2.4401
Au 25.3569 13.9535 18.9898
Au 25.3588 31.2785 39.5629
Au 25.3614 25.0901 4.0985
Au 25.3836 28.8156 5.7570
Au 25.3875 3.7534 23.5377
Au 25.3880 49.2833 20.8288
Au 25.3951 39.6009 37.2024
Au 25.3970 68.8577 35.7901
Au 25.4017 50.8735 14.5800
Au 25.4058 32.5411 7.4154
Au 25.4107 70.4478 29.5414
Au 25.4155 52.4636 8.3313
Au 25.4238 12.0758 21.1772
Au 25.4245 72.0380 23.2927
Au 25.4280 36.2666 9.0739
Au 25.4314 47.9233 34.8419
Au 25.4382 73.6281 17.0440
Au 25.4501 39.9920 10.7323
Au 25.4520 75.2183 10.7952
Au 25.4545 1.8758 25.7252
Au 25.4601 20.3982 18.8168
Au 25.4621 37.7232 39.3899
Au 25.4657 76.8084 4.5465
Au 25.4723 43.7175 12.3908
Au 25.4908 10.1982 23.3647
Au 25.4945 47.4430 14.0492
Au 25.4968 60.2199 36.2536
Au 25.4984 46.0456 37.0294
Au 25.5105 61.8101 30.0049
Au 25.5224 26.2602 1.4679
Au 25.5242 63.4002 23.7561
Au 25.5271 18.5206 21.0042
Au 25.5380 64.9904 17.5074
Au 25.5446 29.9857 3.1264
Au 25.5517 66.5806 11.2587
Au 25.5578 8.3205 25.5522
Au 25.5634 26.8429 18.6437
Au 25.5653 44.1679 39.2168
Au 25.5655 68.1707 5.0100
Au 25.5668 33.7112 4.7848
Au 25.5890 37.4366 6.4433
Au 25.5940 16.6429 23.1917
Au 25.5965 51.5822 36.7170
Au 25.6102 53.1723 30.4683
Au 25.6111 41.1621 8.1017
Au 25.6240 54.7625 24.2196
Au 25.6247 6.4429 27.7396
Au 25.6303 24.9653 20.8312
Au 25.6330 74.3369 39.1810
Au 25.6333 44.8876 9.7602
Au 25.6377 56.3527 17.9709
Au 25.6467 75.9270 32.9323
Au 25.6515 57.9428 11.7222
Au 25.6545 0.6801 13.8047
Au 25.6555 48.6131 11.4186
Au 25.6605 77.5172 26.6835
Au 25.6610 14.7652 25.3791
Au 25.6652 59.5330 5.4735
Au 25.6742 79.1073 20.4348
Au 25.6767 4.4055 15.4632
Au 25.6917 4.5652 29.9271
Au 25.6973 23.0876 23.0186
Au 25.6989 8.1310 17.1216
Au 25.7056 31.1558 0.4958
Au 25.7278 34.8813 2.1542
Au 25.7280 12.8876 27.5666
Au 25.7328 65.6991 39.6444
Au 25.7336 31.4100 20.6582
Au 25.7375 47.7149 18.4344
Au 25.7465 67.2893 33.3957
Au 25.7500 38.6067 3.8127
Au 25.7587 2.6875 32.1145
Au 25.7602 68.8794 27.1470
Au 25.7643 21.2100 25.2061
Au 25.7699 39.7324 18.2977
Au 25.7721 42.3322 5.4711
Au 25.7740 70.4696 20.8983
Au 25.7877 72.0597 14.6496
Au 25.7943 46.0577 7.1296
Au 25.7950 11.0099 29.7540
Au 25.8006 29.5324 22.8456
Au 25.8015 73.6499 8.4009
Au 25.8152 75.2401 2.1522
Au 25.8155 1.8501 11.1742
Au 25.8165 49.7832 8.7880
Au 25.8256 0.8099 34.3020
Au 25.8312 19.3323 27.3936
Au 25.8368 37.8548 20.4851
Au 25.8377 5.5756 12.8326
Au 25.8462 58.6515 33.8592
Au 25.8599 9.3011 14.4910
Au 25.8600 60.2417 27.6105
Au 25.8619 9.1323 31.9415
Au 25.8675 27.6547 25.0331
Au 25.8737 61.8318 21.3618
Au 25.8821 13.0266 16.1495
Au 25.8875 63.4220 15.1131
Au 25.8982 17.4547 29.5810
Au 25.9012 65.0122 8.8643
Au 25.9038 35.9771 22.6726
Au 25.9043 16.7520 17.8079
Au 25.9110 39.7768 1.1821
Au 25.9149 66.6023 2.6156
Au 25.9289 7.2546 34.1290
Au 25.9332 43.5023 2.8405
Au 25.9345 25.7771 27.2205
Au 25.9401 44.2995 20.3121
Au 25.9460 50.0138 34.3227
Au 25.9553 47.2278 4.4990
Au 25.9597 51.6039 28.0740
Au 25.9652 15.5770 31.7685
Au 25.9708 34.0995 24.8600
Au 25.9735 53.1941 21.8252
Au 25.9765 3.0202 8.5436
Au 25.9775 50.9532 6.1574
Au 25.9825 72.7685 36.7866
Au 25.9872 54.7843 15.5765
Au 25.9959 5.3770 36.3164
Au 25.9962 74.3586 30.5379
Au 25.9987 6.7457 10.2020
Au 26.0010 56.3744 9.3278
Au 26.0015 23.8994 29.4080
Au 26.0071 42.4218 22.4996
Au 26.0100 75.9488 24.2892
Au 26.0147 57.9646 3.0791
Au 26.0209 10.4712 11.8605
Au 26.0237 77.5389 18.0405
Au 26.0321 13.6994 33.9559
Au 26.0377 32.2218 27.0475
Au 26.0431 14.1967 13.5189
Au 26.0628 3.4993 38.5039
Au 26.0653 17.9221 15.1773
Au 26.0684 22.0218 31.5954
Au 26.0740 40.5442 24.6870
Au 26.0822 64.1307 37.2501
Au 26.0875 21.6476 16.8358
Au 26.0942 44.6724 0.2099
Au 26.0960 65.7209 31.0014
Au 26.0991 11.8217 36.1434
Au 26.1047 30.3441 29.2350
Au 26.1097 67.3110 24.7526
Au 26.1153 0.4648 4.2545
Au 26.1163 48.3979 1.8684
Au 26.1235 68.9012 18.5039
Au 26.1354 20.1441 33.7829
Au 26.1372 70.4913 12.2552
Au 26.1375 4.1903 5.9130
Au 26.1385 52.1233 3.5268
Au 26.1410 38.6665 26.8745
Au 26.1509 72.0815 6.0065
Au 26.1597 7.9158 7.5714
Au 26.1649 79.8251 13.3940
Au 26.1661 9.9441 38.3308
Au 26.1717 28.4665 31.4224
Au 26.1773 46.9889 24.5140
Au 26.1819 11.6413 9.2299
Au 26.1820 55.4930 37.7135
Au 26.1957 57.0831 31.4648
Au 26.2024 18.2664 35.9704
Au 26.2041 15.3667 10.8883
Au 26.2080 36.7889 29.0619
Au 26.2095 58.6733 25.2161
Au 26.2232 60.2634 18.9674
Au 26.2263 19.0922 12.5467
Au 26.2370 61.8536 12.7187
Au 26.2386 26.5888 33.6099
Au 26.2442 45.1113 26.7015
Au 26.2485 22.8177 14.2052
Au 26.2507 63.4438 6.4700
Au 26.2644 65.0339 0.2213
Au 26.2693 16.3888 38.1578
Au 26.2707 26.5432 15.8636
Au 26.2749 34.9112 31.2494
Au 26.2763 1.6349 1.6239
Au 26.2929 30.2686 17.5221
Au 26.2985 5.3604 3.2824
Au 26.2995 53.2934 0.8962
Au 26.3056 24.7112 35.7973
Au 26.3092 50.0355 25.6796
Au 26.3112 43.2336 28.8889
Au 26.3207 9.0859 4.9408
Au 26.3230 51.6257 19.4309
Au 26.3320 71.2001 34.3922
Au 26.3367 53.2159 13.1822
Au 26.3419 33.0336 33.4368
Au 26.3429 12.8114 6.5993
Au 26.3457 72.7902 28.1435
Au 26.3504 54.8060 6.9334
Au 26.3595 74.3804 21.8948
Au 26.3642 56.3962 0.6847
Au 26.3651 16.5368 8.2577
Au 26.3726 22.8335 37.9848
Au 26.3732 75.9705 15.6461
Au 26.3782 41.3560 31.0764
Au 26.3873 20.2623 9.9162
Au 26.4089 31.1559 35.6243
Au 26.4095 23.9878 11.5746
Au 26.4317 27.7132 13.2330
Au 26.4317 62.5623 34.8557
Au 26.4376 3.6309 19.5991
Au 26.4452 39.4783 33.2638
Au 26.4455 64.1525 28.6070
Au 26.4539 31.4387 14.8915
Au 26.4591 79.1863 25.9435
Au 26.4592 65.7426 22.3583
Au 26.4595 6.5305 0.6518
Au 26.4729 67.3328 16.1096
Au 26.4758 29.2783 37.8118
Au 26.4761 35.1642 16.5499
Au 26.4814 47.8007 30.9033
Au 26.4817 10.2560 2.3102
Au 26.4867 68.9229 9.8608
Au 26.5004 70.5131 3.6121
Au 26.5039 13.9814 3.9687
Au 26.5045 1.7532 21.7866
Au 26.5121 37.6006 35.4513
Au 26.5186 80.0000 5.7749
Au 26.5261 17.7069 5.6271
Au 26.5315 53.9246 35.3192
Au 26.5408 10.0756 19.4261
Au 26.5428 27.4006 39.9992
Au 26.5452 55.5147 29.0705
Au 26.5483 21.4324 7.2856
Au 26.5484 45.9230 33.0908
Au 26.5590 57.1049 22.8217
Au 26.5680 76.6793 37.7831
Au 26.5705 25.1579 8.9440
Au 26.5727 58.6950 16.5730
Au 26.5791 35.7230 37.6387
Au 26.5864 60.2852 10.3243
Au 26.5927 28.8833 10.6025
Au 26.6002 61.8754 4.0756
Au 26.6078 8.1979 21.6136
Au 26.6149 32.6088 12.2609
Au 26.6154 44.0454 35.2783
Au 26.6371 36.3343 13.9193
Au 26.6461 33.8453 39.8262
Au 26.6587 48.4671 23.2852
Au 26.6593 40.0597 15.5778
Au 26.6649 15.1515 1.3381
Au 26.6677 68.0415 38.2466
Au 26.6724 50.0573 17.0365
Au 26.6748 6.3203 23.8010
Au 26.6814 43.7852 17.2362
Au 26.6815 69.6317 31.9978
Au 26.6823 42.1677 37.4657
Au 26.6862 51.6475 10.7878
Au 26.6871 18.8770 2.9965
Au 26.6952 71.2218 25.7491
Au 26.7089 72.8120 19.5004
Au 26.7093 22.6025 4.6550
Au 26.7111 14.6427 21.4405
Au 26.7315 26.3279 6.3134
Au 26.7417 4.4426 25.9885
Au 26.7473 22.9651 19.0801
Au 26.7493 40.2901 39.6532
Au 26.7534 78.5475 38.4931
Au 26.7537 30.0534 7.9719
Au 26.7675 59.4038 38.7100
Au 26.7759 33.7789 9.6303
Au 26.7780 12.7650 23.6280
Au 26.7812 60.9939 32.4613
Au 26.7856 48.6125 37.2927
Au 26.7950 62.5841 26.2126
Au 26.7981 37.5044 11.2888
Au 26.8087 64.1742 19.9639
Au 26.8087 2.5650 28.1759
Au 26.8129 79.3612 18.3245
Au 26.8143 21.0874 21.2675
Au 26.8203 41.2298 12.9472
Au 26.8224 65.7644 13.7152
Au 26.8362 67.3545 7.4665
Au 26.8424 44.9553 14.6056
Au 26.8450 10.8874 25.8154
Au 26.8481 20.0471 0.3659
Au 26.8499 68.9447 1.2177
Au 26.8526 46.7348 39.4801
Au 26.8636 0.7478 18.6502
Au 26.8672 50.7660 39.1735
Au 26.8703 23.7726 2.0244
Au 26.8757 0.6873 30.3634
Au 26.8810 52.3562 32.9248
Au 26.8813 19.2098 23.4550
Au 26.8925 27.4980 3.6828
Au 26.8947 53.9463 26.6761
Au 26.9084 55.5365 20.4274
Au 26.9120 9.0097 28.0029
Au 26.9147 31.2235 5.3413
Au 26.9176 27.5322 21.0945
Au 26.9222 57.1266 14.1787
Au 26.9359 58.7168 7.9299
Au 26.9369 34.9490 6.9997
Au 26.9482 17.3321 25.6424
Au 26.9497 60.3070 1.6812
Au 26.9591 38.6744 8.6582
Au 26.9789 7.1321 30.1904
Au 26.9813 42.3999 10.3166
Au 26.9845 25.6545 23.2819
Au 27.0035 46.1254 11.9750
Au 27.0152 15.4545 27.8299
Au 27.0172 66.4731 35.8522
Au 27.0208 33.9769 20.9215
Au 27.0246 1.9179 16.0196
Au 27.0256 49.8509 13.6335
Au 27.0310 68.0633 29.6035
Au 27.0447 69.6534 23.3548
Au 27.0459 5.2544 32.3778
Au 27.0468 5.6433 17.6781
Au 27.0515 23.7768 25.4694
Au 27.0535 28.6681 1.0522
Au 27.0757 32.3936 2.7107
Au 27.0822 13.5768 30.0173
Au 27.0878 32.0992 23.1089
Au 27.0979 36.1191 4.3691
Au 27.1072 78.7224 30.8740
Au 27.1129 3.3768 34.5653
Au 27.1170 57.8354 36.3157
Au 27.1185 21.8992 27.6569
Au 27.1201 39.8445 6.0276
Au 27.1241 40.4216 20.7484
Au 27.1307 59.4255 30.0669
Au 27.1423 43.5700 7.6860
Au 27.1444 61.0157 23.8182
Au 27.1477 73.9301 23.6721
Au 27.1491 11.6991 32.2048
Au 27.1547 30.2216 25.2964
Au 27.1582 62.6058 17.5695
Au 27.1645 47.2955 9.3445
Au 27.1666 79.5361 10.7055
Au 27.1719 64.1960 11.3208
Au 27.1798 1.4991 36.7527
Au 27.1854 20.0215 29.8443
Au 27.1856 3.0879 13.3890
Au 27.1857 65.7861 5.0721
Au 27.1910 38.5440 22.9359
Au 27.1977 71.9409 9.9868
Au 27.2071 74.7439 3.5035
Au 27.2078 6.8134 15.0475
Au 27.2161 9.8215 34.3923
Au 27.2217 28.3439 27.4838
Au 27.2273 46.8664 20.5754
Au 27.2300 10.5389 16.7059
Au 27.2304 50.7878 30.5304
Au 27.2367 33.5637 0.0801
Au 27.2442 52.3779 24.2817
Au 27.2522 14.2644 18.3644
Au 27.2524 18.1439 32.0318
Au 27.2579 53.9681 18.0330
Au 27.2580 36.6663 25.1233
Au 27.2589 37.2891 1.7385
Au 27.2717 55.5582 11.7843
Au 27.2811 41.0146 3.3970
Au 27.2831 7.9438 36.5797
Au 27.2854 57.1484 5.5356
Au 27.2887 26.4663 29.6713
Au 27.2943 44.9887 22.7629
Au 27.3033 44.7401 5.0554
Au 27.3194 16.2662 34.2192
Au 27.3244 0.5326 9.1000
Au 27.3250 34.7887 27.3108
Au 27.3255 48.4656 6.7139
Au 27.3466 4.2580 10.7584
Au 27.3477 52.1910 8.3723
Au 27.3501 6.0662 38.7672
Au 27.3530 63.3146 39.7065
Au 27.3557 24.5886 31.8587
Au 27.3613 43.1110 24.9503
Au 27.3667 64.9047 33.4578
Au 27.3688 7.9835 12.4169
Au 27.3804 66.4949 27.2091
Au 27.3863 14.3886 36.4067
Au 27.3910 11.7090 14.0753
Au 27.3919 32.9110 29.4983
Au 27.3942 68.0850 20.9604
Au 27.4132 15.4345 15.7338
Au 27.4226 22.7110 34.0462
Au 27.4282 41.2334 27.1378
Au 27.4354 19.1599 17.3922
Au 27.4421 42.1847 0.7664
Au 27.4514 76.0944 29.7383
Au 27.4533 12.5109 38.5941
Au 27.4589 31.0333 31.6857
Au 27.4609 78.8973 23.2550
Au 27.4643 45.9102 2.4248
Au 27.4664 56.2670 33.9213
Au 27.4802 57.8571 27.6726
Au 27.4854 1.7026 6.4694
Au 27.4865 49.6357 4.0833
Au 27.4896 20.8333 36.2337
Au 27.4919 71.3021 22.5364
Au 27.4939 59.4473 21.4239
Au 27.4952 39.3557 29.3252
Au 27.5014 74.1051 16.0531
Au 27.5076 5.4281 8.1278
Au 27.5077 61.0374 15.1751
Au 27.5087 53.3611 5.7417
Au 27.5109 76.9081 9.5697
Au 27.5204 79.7111 3.0864
Au 27.5214 62.6276 8.9264
Au 27.5259 29.1557 33.8732
Au 27.5298 9.1536 9.7863
Au 27.5315 47.6781 26.9647
Au 27.5351 64.2177 2.6777
Au 27.5514 72.1158 2.3678
Au 27.5520 12.8791 11.4447
Au 27.5566 18.9556 38.4211
Au 27.5622 37.4781 31.5127
Au 27.5742 16.6045 13.1032
Au 27.5799 49.2194 28.1360
Au 27.5928 27.2780 36.0606
Au 27.5937 50.8095 21.8873
Au 27.5964 20.3300 14.7616
Au 27.5984 45.8005 29.1522
Au 27.6074 52.3997 15.6386
Au 27.6186 24.0555 16.4201
Au 27.6212 53.9898 9.3899
Au 27.6291 35.6004 33.7001
Au 27.6408 27.7810 18.0785
Au 27.6464 2.8727 3.8388
Au 27.6475 50.8057 1.4527
Au 27.6598 25.4004 38.2481
Au 27.6630 31.5064 19.7370
Au 27.6654 43.9228 31.3397
Au 27.6686 6.5982 5.4973
Au 27.6697 54.5312 3.1111
Au 27.6908 10.3237 7.1557
Au 27.6961 33.7228 35.8876
Au 27.7024 61.7462 37.3122
Au 27.7130 14.0491 8.8141
Au 27.7162 63.3363 31.0634
Au 27.7248 6.1977 19.8624
Au 27.7299 64.9265 24.8147
Au 27.7324 42.0452 33.5271
Au 27.7352 17.7746 10.4726
Au 27.7552 78.2586 35.8045
Au 27.7574 21.5001 12.1310
Au 27.7631 31.8451 38.0751
Au 27.7796 25.2256 13.7895
Au 27.7918 4.3201 22.0499
Au 27.7993 40.1675 35.7146
Au 27.8018 28.9510 15.4479
Au 27.8022 53.1084 37.7756
Au 27.8052 76.2693 22.1193
Au 27.8074 4.0428 1.2082
Au 27.8146 79.0723 15.6360
Au 27.8159 54.6986 31.5269
Au 27.8240 32.6765 17.1064
Au 27.8296 7.7683 2.8667
Au 27.8297 56.2887 25.2782
Au 27.8356 48.4899 33.3541
Au 27.8434 57.8789 19.0295
Au 27.8457 71.4770 14.9173
Au 27.8462 36.4020 18.7648
Au 27.8518 11.4938 4.5251
Au 27.8551 74.2800 8.4340
Au 27.8572 59.4690 12.7808
Au 27.8587 2.4424 24.2373
Au 27.8646 77.0830 1.9507
Au 27.8663 38.2899 37.9020
Au 27.8709 61.0592 6.5321
Au 27.8740 15.2192 6.1835
Au 27.8767 63.8818 14.1987
Au 27.8950 10.7648 21.8769
Au 27.8962 18.9447 7.8420
Au 27.9026 46.6122 35.5416
Au 27.9184 22.6702 9.5004
Au 27.9257 0.5648 26.4248
Au 27.9267 61.8925 0.5135
Au 27.9406 26.3957 11.1589
Au 27.9432 49.2411 19.4930
Au 27.9620 8.8872 24.0643
Au 27.9628 30.1211 12.8173
Au 27.9696 44.7346 37.7290
Au 27.9850 33.8466 14.4758
Au 27.9906 8.9384 0.2361
Au 27.9983 17.2095 21.7038
Au 28.0072 37.5721 16.1342
Au 28.0128 12.6638 1.8945
Au 28.0290 7.0095 26.2518
Au 28.0294 41.2975 17.7927
Au 28.0350 16.3893 3.5530
Au 28.0365 42.8569 39.9165
Au 28.0516 45.0230 19.4511
Au 28.0519 60.1778 34.9178
Au 28.0572 20.1148 5.2114
Au 28.0652 15.3319 23.8913
Au 28.0657 61.7679 28.6691
Au 28.0794 23.8403 6.8698
Au 28.0959 5.1318 28.4392
Au 28.0994 75.6305 34.6688
Au 28.1015 23.6543 21.5308
Au 28.1016 27.5657 8.5283
Au 28.1089 78.4335 28.1855
Au 28.1238 31.2912 10.1867
Au 28.1305 68.0352 33.9502
Au 28.1322 13.4542 26.0787
Au 28.1398 49.3017 39.7434
Au 28.1399 70.8382 27.4669
Au 28.1460 35.0167 11.8452
Au 28.1494 73.6412 20.9836
Au 28.1517 51.5400 35.3813
Au 28.1589 76.4442 14.5003
Au 28.1629 3.2542 30.6267
Au 28.1654 53.1302 29.1325
Au 28.1682 38.7422 13.5036
Au 28.1684 79.2472 8.0169
Au 28.1685 21.7766 23.7183
Au 28.1792 54.7203 22.8838
Au 28.1805 66.0460 20.2650
Au 28.1899 68.8490 13.7816
Au 28.1904 42.4676 15.1621
Au 28.1929 56.3105 16.6351
Au 28.1960 17.5594 0.9224
Au 28.1992 11.5766 28.2662
Au 28.1994 71.6520 7.2983
Au 28.2048 30.0990 21.3578
Au 28.2066 57.9006 10.3864
Au 28.2089 74.4550 0.8150
Au 28.2126 46.1931 16.8205
Au 28.2182 21.2849 2.5808
Au 28.2204 59.4908 4.1377
Au 28.2210 61.2537 13.0630
Au 28.2299 1.3765 32.8141
Au 28.2304 64.0567 6.5797
Au 28.2355 19.8990 25.9057
Au 28.2399 66.8597 0.0964
Au 28.2404 25.0104 4.2393
Au 28.2626 28.7358 5.8977
Au 28.2661 9.6989 30.4537
Au 28.2718 28.2214 23.5452
Au 28.2848 32.4613 7.5561
Au 28.3024 18.0213 28.0932
Au 28.3070 36.1868 9.2146
Au 28.3080 36.5437 21.1848
Au 28.3292 39.9122 10.8730
Au 28.3331 7.8213 32.6411
Au 28.3387 26.3437 25.7327
Au 28.3514 43.6377 12.5315
Au 28.3694 16.1437 30.2806
Au 28.3736 47.3632 14.1899
Au 28.3750 34.6661 23.3722
Au 28.3877 57.0192 38.7721
Au 28.3947 3.1557 18.2345
Au 28.4001 5.9436 34.8286
Au 28.4014 58.6094 32.5234
Au 28.4014 26.1804 1.6087
Au 28.4057 24.4660 27.9202
Au 28.4113 42.9885 21.0117
Au 28.4152 60.1995 26.2747
Au 28.4236 29.9059 3.2671
Au 28.4364 14.2660 32.4681
Au 28.4420 32.7884 25.5597
Au 28.4437 73.0024 33.5331
Au 28.4458 33.6314 4.9256
Au 28.4532 75.8054 27.0498
Au 28.4627 78.6084 20.5665
Au 28.4671 4.0660 37.0160
Au 28.4680 37.3569 6.5840
Au 28.4727 22.5884 30.1076
Au 28.4783 41.1108 23.1992
Au 28.4842 68.2102 26.3312
Au 28.4902 41.0823 8.2424
Au 28.4937 71.0132 19.8479
Au 28.5032 73.8162 13.3646
Au 28.5033 12.3883 34.6555
Au 28.5089 30.9108 27.7471
Au 28.5124 44.8078 9.9009
Au 28.5126 76.6192 6.8812
Au 28.5149 51.5618 26.7382
Au 28.5221 79.4222 0.3979
Au 28.5247 63.4179 19.1292
Au 28.5286 53.1519 20.4895
Au 28.5336 0.6003 13.9455
Au 28.5340 2.1883 39.2035
Au 28.5342 66.2209 12.6459
Au 28.5346 48.5333 11.5593
Au 28.5396 20.7107 32.2951
Au 28.5424 54.7421 14.2407
Au 28.5437 69.0239 6.1626
Au 28.5452 39.2332 25.3866
Au 28.5557 4.3257 15.6039
Au 28.5561 56.3322 7.9920
Au 28.5703 10.5107 36.8430
Au 28.5759 29.0331 29.9346
Au 28.5779 8.0512 17.2624
Au 28.5815 47.5556 23.0262
Au 28.5846 31.0760 0.6365
Au 28.6001 11.7767 18.9208
Au 28.6066 18.8331 34.4825
Au 28.6068 34.8015 2.2950
Au 28.6122 37.3555 27.5741
Au 28.6290 38.5269 3.9534
Au 28.6373 8.6330 39.0305
Au 28.6429 27.1555 32.1220
Au 28.6485 45.6779 25.2136
Au 28.6512 42.2524 5.6119
Au 28.6734 45.9779 7.2703
Au 28.6736 16.9554 36.6700
Au 28.6792 35.4779 29.7616
Au 28.6946 1.7704 11.3149
Au 28.6956 49.7034 8.9287
Au 28.7098 25.2778 34.3095
Au 28.7154 43.8003 27.4011
Au 28.7167 5.4958 12.9733
Au 28.7372 55.4508 36.3777
Au 28.7389 9.2213 14.6318
Au 28.7405 15.0778 38.8574
Au 28.7461 33.6002 31.9490
Au 28.7475 75.1666 39.5994
Au 28.7509 57.0410 30.1290
Au 28.7569 77.9696 33.1160
Au 28.7611 12.9468 16.2902
Au 28.7768 23.4002 36.4970
Au 28.7785 67.5714 38.8807
Au 28.7824 41.9226 29.5885
Au 28.7833 16.6722 17.9487
Au 28.7880 70.3744 32.3974
Au 28.7900 39.6970 1.3228
Au 28.7974 73.1774 25.9141
Au 28.8055 20.3977 19.6071
Au 28.8069 75.9804 19.4308
Au 28.8095 59.9761 38.1621
Au 28.8122 43.4225 2.9813
Au 28.8131 31.7226 34.1365
Au 28.8164 78.7834 12.9475
Au 28.8344 47.1480 4.6397
Au 28.8379 68.3851 18.7122
Au 28.8438 21.5225 38.6844
Au 28.8474 71.1881 12.2288
Au 28.8494 40.0449 31.7760
Au 28.8556 2.9404 8.6843
Au 28.8566 50.8734 6.2981
Au 28.8569 73.9911 5.7455
Au 28.8595 57.9869 24.4768
Au 28.8644 49.9934 24.3438
Au 28.8690 60.7899 17.9935
Au 28.8777 6.6659 10.3427
Au 28.8781 51.5835 18.0951
Au 28.8784 63.5929 11.5102
Au 28.8801 29.8449 36.3239
Au 28.8857 48.3673 29.4155
Au 28.8879 66.3958 5.0269
Au 28.8999 10.3914 12.0012
Au 28.9095 55.9976 10.7916
Au 28.9163 38.1673 33.9634
Au 28.9221 14.1169 13.6596
Au 28.9443 17.8423 15.3181
Au 28.9470 27.9672 38.5114
Au 28.9526 46.4897 31.6030
Au 28.9665 21.5678 16.9765
Au 28.9732 44.5926 0.3507
Au 28.9757 0.4422 22.4862
Au 28.9833 36.2896 36.1509
Au 28.9887 25.2933 18.6350
Au 28.9944 0.3851 4.3952
Au 28.9954 48.3181 2.0091
Au 29.0166 4.1105 6.0537
Au 29.0176 52.0435 3.6676
Au 29.0196 44.6120 33.7904
Au 29.0388 7.8360 7.7121
Au 29.0503 34.4120 38.3384
Au 29.0609 11.5615 9.3706
Au 29.0790 6.8869 22.3132
Au 29.0831 15.2869 11.0290
Au 29.0866 42.7344 35.9779
Au 29.0866 53.8824 33.9834
Au 29.0917 72.5386 38.4636
Au 29.1012 75.3416 31.9803
Au 29.1053 19.0124 12.6875
Au 29.1107 78.1446 25.4970
Au 29.1227 64.9433 37.7450
Au 29.1275 22.7379 14.3459
Au 29.1322 67.7463 31.2617
Au 29.1417 70.5493 24.7784
Au 29.1460 5.0093 24.5006
Au 29.1497 26.4634 16.0044
Au 29.1512 73.3523 18.2951
Au 29.1535 40.8567 38.1653
Au 29.1538 57.3481 37.0264
Au 29.1554 1.5551 1.7646
Au 29.1607 76.1553 11.8118
Au 29.1633 60.1511 30.5431
Au 29.1701 78.9583 5.3284
Au 29.1719 30.1888 17.6628
Au 29.1727 62.9541 24.0598
Au 29.1776 5.2806 3.4231
Au 29.1786 53.2136 1.0370
Au 29.1822 65.7571 17.5764
Au 29.1822 13.3317 22.1402
Au 29.1898 49.1791 35.8049
Au 29.1917 68.5601 11.0931
Au 29.1941 33.9143 19.3212
Au 29.1998 9.0061 5.0815
Au 29.2012 71.3630 4.6098
Au 29.2129 3.1316 26.6881
Au 29.2132 58.1618 16.8578
Au 29.2219 12.7316 6.7400
Au 29.2227 60.9648 10.3745
Au 29.2322 63.7678 3.8912
Au 29.2441 16.4570 8.3984
Au 29.2492 11.4540 24.3276
Au 29.2568 47.3014 37.9923
Au 29.2663 20.1825 10.0569
Au 29.2799 1.2540 28.8756
Au 29.2855 19.7764 21.9671
Au 29.2885 23.9080 11.7153
Au 29.3107 27.6335 13.3738
Au 29.3162 9.5764 26.5151
Au 29.3329 31.3589 15.0322
Au 29.3386 6.4507 0.7925
Au 29.3525 17.8987 24.1546
Au 29.3551 35.0844 16.6907
Au 29.3608 10.1762 2.4509
Au 29.3773 38.8099 18.3491
Au 29.3830 13.9016 4.1094
Au 29.3832 7.6987 28.7025
Au 29.3888 26.2211 21.7941
Au 29.4050 77.5058 38.0466
Au 29.4051 17.6271 5.7678
Au 29.4194 16.0211 26.3420
Au 29.4224 50.7239 37.8377
Au 29.4273 21.3526 7.4263
Au 29.4360 69.9105 37.3279
Au 29.4361 52.3140 31.5890
Au 29.4455 72.7135 30.8446
Au 29.4495 25.0781 9.0847
Au 29.4501 5.8210 30.8900
Au 29.4549 75.5165 24.3613
Au 29.4557 24.3435 23.9816
Au 29.4644 78.3195 17.8780
Au 29.4670 62.3153 36.6093
Au 29.4717 28.8035 10.7432
Au 29.4765 65.1183 30.1260
Au 29.4860 67.9213 23.6427
Au 29.4864 14.1434 28.5295
Au 29.4920 32.6659 21.6211
Au 29.4939 32.5290 12.4016
Au 29.4954 70.7243 17.1594
Au 29.5049 73.5272 10.6760
Au 29.5144 76.3302 4.1927
Au 29.5161 36.2545 14.0601
Au 29.5170 60.3260 22.9241
Au 29.5171 3.9434 33.0774
Au 29.5227 22.4658 26.1690
Au 29.5265 63.1290 16.4407
Au 29.5359 65.9320 9.9574
Au 29.5383 39.9800 15.7185
Au 29.5440 15.0717 1.4788
Au 29.5454 68.7350 3.4741
Au 29.5480 52.7307 22.2054
Au 29.5534 12.2658 30.7170
Au 29.5575 55.5337 15.7221
Au 29.5590 30.7882 23.8085
Au 29.5605 43.7054 17.3770
Au 29.5661 18.7972 3.1372
Au 29.5670 58.3367 9.2388
Au 29.5764 61.1397 2.7555
Au 29.5827 47.4309 19.0354
Au 29.5841 2.0657 35.2649
Au 29.5883 22.5227 4.7957
Au 29.5897 20.5882 28.3565
Au 29.6105 26.2482 6.4541
Au 29.6203 10.3881 32.9044
Au 29.6259 28.9106 25.9960
Au 29.6327 29.9736 8.1126
Au 29.6510 0.1881 37.4524
Au 29.6549 33.6991 9.7710
Au 29.6566 18.7105 30.5439
Au 29.6622 37.2330 23.6355
Au 29.6771 37.4246 11.4295
Au 29.6873 8.5105 35.0919
Au 29.6929 27.0329 28.1835
Au 29.6993 41.1500 13.0879
Au 29.7215 44.8755 14.7464
Au 29.7236 16.8329 32.7314
Au 29.7271 19.9673 0.5066
Au 29.7292 35.3553 25.8230
Au 29.7427 0.6680 18.7909
Au 29.7437 48.6010 16.4048
Au 29.7492 74.8777 36.9109
Au 29.7493 23.6928 2.1651
Au 29.7543 6.6328 37.2793
Au 29.7587 77.6807 30.4275
Au 29.7599 25.1553 30.3709
Au 29.7649 4.3935 20.4494
Au 29.7655 43.6777 23.4625
Au 29.7715 27.4182 3.8235
Au 29.7802 67.2825 36.1922
Au 29.7897 70.0855 29.7089
Au 29.7906 14.9552 34.9188
Au 29.7937 31.1437 5.4820
Au 29.7962 33.4776 28.0104
Au 29.7992 72.8885 23.2256
Au 29.8087 75.6915 16.7423
Au 29.8113 59.6872 35.4736
Au 29.8159 34.8692 7.1404
Au 29.8181 78.4944 10.2590
Au 29.8207 62.4902 28.9903
Au 29.8212 4.7552 39.4668
Au 29.8268 23.2776 32.5584
Au 29.8302 65.2932 22.5070
Au 29.8324 41.8000 25.6499
Au 29.8381 38.5947 8.7989
Au 29.8397 68.0962 16.0237
Au 29.8423 52.0920 34.7550
Au 29.8492 70.8992 9.5403
Au 29.8518 54.8950 28.2717
Au 29.8575 13.0776 37.1063
Au 29.8586 73.7022 3.0570
Au 29.8603 42.3201 10.4573
Au 29.8612 57.6979 21.7883
Au 29.8631 31.6000 30.1979
Au 29.8707 60.5009 15.3050
Au 29.8802 63.3039 8.8217
Au 29.8825 46.0456 12.1158
Au 29.8897 66.1069 2.3384
Au 29.8923 50.1027 21.0697
Au 29.8938 21.3999 34.7458
Au 29.8994 39.9224 27.8374
Au 29.9018 52.9057 14.5864
Au 29.9037 1.8381 16.1603
Au 29.9047 49.7711 13.7742
Au 29.9207 58.5117 1.6198
Au 29.9245 11.1999 39.2938
Au 29.9259 5.5635 17.8188
Au 29.9301 29.7223 32.3853
Au 29.9325 28.5883 1.1929
Au 29.9357 48.2448 25.4769
Au 29.9480 9.2890 19.4772
Au 29.9547 32.3138 2.8514
Au 29.9608 19.5223 36.9333
Au 29.9664 38.0447 30.0249
Au 29.9769 36.0393 4.5098
Au 29.9971 27.8447 34.5728
Au 29.9991 39.7647 6.1683
Au 30.0027 46.3671 27.6644
Au 30.0213 43.4902 7.8267
Au 30.0278 17.6446 39.1207
Au 30.0334 36.1671 32.2123
Au 30.0435 47.2157 9.4852
Au 30.0624 79.8449 36.4938
Au 30.0640 25.9670 36.7603
Au 30.0647 3.0082 13.5297
Au 30.0657 50.9412 11.1436
Au 30.0696 44.4895 29.8518
Au 30.0869 6.7336 15.1882
Au 30.0935 72.2497 35.7751
Au 30.1003 34.2894 34.3998
Au 30.1029 75.0527 29.2918
Au 30.1091 10.4591 16.8466
Au 30.1124 77.8557 22.8085
Au 30.1157 33.4839 0.2208
Au 30.1245 64.6544 35.0565
Au 30.1310 24.0894 38.9477
Au 30.1312 14.1846 18.5051
Au 30.1340 67.4574 28.5732
Au 30.1366 42.6118 32.0393
Au 30.1379 37.2094 1.8792
Au 30.1435 70.2604 22.0899
Au 30.1529 73.0634 15.6066
Au 30.1534 17.9100 20.1635
Au 30.1555 57.0592 34.3379
Au 30.1601 40.9348 3.5377
Au 30.1624 75.8664 9.1233
Au 30.1650 59.8622 27.8546
Au 30.1673 32.4118 36.5872
Au 30.1719 78.6694 2.6399
Au 30.1745 62.6651 21.3713
Au 30.1756 21.6355 21.8220
Au 30.1823 44.6603 5.1961
Au 30.1840 65.4681 14.8879
Au 30.1934 68.2711 8.4046
Au 30.1960 52.2669 27.1359
Au 30.2029 71.0741 1.9213
Au 30.2035 0.4528 9.2407
Au 30.2036 40.7341 34.2267
Au 30.2045 48.3858 6.8546
Au 30.2055 55.0699 20.6526
Au 30.2150 57.8729 14.1693
Au 30.2245 60.6759 7.6860
Au 30.2257 4.1782 10.8992
Au 30.2267 52.1112 8.5130
Au 30.2339 63.4789 1.2027
Au 30.2343 30.5341 38.7747
Au 30.2399 49.0565 31.8663
Au 30.2479 7.9037 12.5576
Au 30.2630 3.0091 22.7495
Au 30.2701 11.6292 14.2160
Au 30.2705 38.8565 36.4142
Au 30.2922 15.3547 15.8745
Au 30.3068 47.1789 34.0537
Au 30.3144 19.0801 17.5329
Au 30.3211 42.1049 0.9071
Au 30.3299 1.1314 24.9370
Au 30.3366 22.8056 19.1914
Au 30.3375 36.9788 38.6017
Au 30.3433 45.8304 2.5655
Au 30.3645 1.6229 6.6101
Au 30.3655 49.5559 4.2240
Au 30.3662 9.4538 22.5765
Au 30.3738 45.3012 36.2412
Au 30.3867 5.3483 8.2686
Au 30.3877 53.2813 5.8824
Au 30.4067 77.2169 35.3581
Au 30.4089 9.0738 9.9270
Au 30.4311 12.7993 11.5855
Au 30.4332 7.5761 24.7639
Au 30.4377 69.6216 34.6394
Au 30.4408 43.4236 38.4286
Au 30.4472 72.4246 28.1561
Au 30.4533 16.5247 13.2439
Au 30.4567 75.2276 21.6728
Au 30.4662 78.0306 15.1895
Au 30.4688 62.0264 33.9208
Au 30.4695 15.8985 22.4035
Au 30.4754 20.2502 14.9023
Au 30.4782 64.8293 27.4375
Au 30.4877 67.6323 20.9542
Au 30.4903 51.6281 39.6855
Au 30.4972 70.4353 14.4709
Au 30.4976 23.9757 16.5608
Au 30.5002 5.6985 26.9514
Au 30.5067 73.2383 7.9875
Au 30.5093 57.2341 26.7189
Au 30.5161 76.0413 1.5042
Au 30.5187 60.0371 20.2355
Au 30.5198 27.7012 18.2192
Au 30.5255 2.7929 3.9795
Au 30.5265 50.7259 1.5934
Au 30.5282 62.8401 13.7522
Au 30.5364 14.0209 24.5909
Au 30.5377 65.6431 7.2689
Au 30.5420 31.4266 19.8777
Au 30.5472 68.4461 0.7856
Au 30.5477 6.5184 5.6380
Au 30.5487 54.4514 3.2518
Au 30.5498 52.4418 19.5169
Au 30.5592 55.2448 13.0336
Au 30.5642 35.1521 21.5361
Au 30.5671 3.8208 29.1389
Au 30.5687 58.0478 6.5503
Au 30.5699 10.2439 7.2964
Au 30.5782 60.8508 0.0670
Au 30.5921 13.9694 8.9549
Au 30.6034 12.1432 26.7784
Au 30.6143 17.6948 10.6133
Au 30.6341 1.9432 31.3263
Au 30.6364 21.4203 12.2718
Au 30.6397 20.4656 24.4179
Au 30.6586 25.1458 13.9302
Au 30.6704 10.2656 28.9658
Au 30.6808 28.8712 15.5886
Au 30.6865 3.9630 1.3489
Au 30.7011 0.0655 33.5138
Au 30.7030 32.5967 17.2471
Au 30.7067 18.5880 26.6053
Au 30.7087 7.6885 3.0074
Au 30.7097 55.6215 0.6212
Au 30.7252 36.3222 18.9055
Au 30.7309 11.4140 4.6658
Au 30.7373 8.3879 31.1533
Au 30.7429 26.9103 24.2449
Au 30.7474 40.0477 20.5640
Au 30.7510 74.5888 34.2223
Au 30.7531 15.1394 6.3243
Au 30.7604 77.3918 27.7390
Au 30.7725 64.1906 39.9870
Au 30.7736 16.7103 28.7928
Au 30.7753 18.8649 7.9827
Au 30.7820 66.9936 33.5037
Au 30.7915 69.7965 27.0204
Au 30.7974 22.5904 9.6412
Au 30.8009 72.5995 20.5371
Au 30.8035 56.5953 39.2684
Au 30.8043 6.5103 33.3407
Au 30.8099 25.0327 26.4323
Au 30.8104 75.4025 14.0538
Au 30.8130 59.3983 32.7851
Au 30.8196 26.3159 11.2996
Au 30.8199 78.2055 7.5705
Au 30.8225 62.2013 26.3018
Au 30.8320 65.0043 19.8185
Au 30.8406 14.8326 30.9803
Au 30.8414 67.8073 13.3351
Au 30.8418 30.0413 12.9580
Au 30.8462 33.3551 24.0718
Au 30.8509 70.6103 6.8518
Au 30.8535 54.6060 25.5832
Au 30.8604 73.4133 0.3685
Au 30.8630 57.4090 19.0998
Au 30.8640 33.7668 14.6165
Au 30.8697 8.8586 0.3768
Au 30.8713 4.6326 35.5282
Au 30.8725 60.2120 12.6165
Au 30.8769 23.1550 28.6198
Au 30.8820 63.0150 6.1332
Au 30.8862 37.4923 16.2749
Au 30.8919 12.5841 2.0352
Au 30.9076 12.9550 33.1677
Au 30.9084 41.2178 17.9334
Au 30.9130 55.4198 5.4146
Au 30.9132 31.4774 26.2593
Au 30.9141 16.3095 3.6937
Au 30.9306 44.9432 19.5918
Au 30.9363 20.0350 5.3521
Au 30.9382 2.7549 37.7157
Au 30.9439 21.2774 30.8072
Au 30.9495 39.7998 23.8988
Au 30.9585 23.7605 7.0106
Au 30.9745 11.0773 35.3552
Au 30.9801 29.5998 28.4467
Au 30.9806 27.4859 8.6690
Au 31.0028 31.2114 10.3275
Au 31.0052 0.8773 39.9031
Au 31.0108 19.3997 32.9947
Au 31.0164 37.9222 26.0863
Au 31.0250 34.9369 11.9859
Au 31.0415 9.1997 37.5426
Au 31.0471 27.7221 30.6342
Au 31.0472 38.6624 13.6443
Au 31.0527 46.2445 23.7258
Au 31.0642 79.5560 33.8053
Au 31.0694 42.3878 15.3028
Au 31.0751 17.4796 1.0631
Au 31.0778 17.5221 35.1821
Au 31.0834 36.0445 28.2737
Au 31.0857 69.1578 39.5700
Au 31.0916 46.1133 16.9612
Au 31.0952 71.9607 33.0866
Au 31.0973 21.2051 2.7215
Au 31.1047 74.7637 26.6033
Au 31.1085 7.3220 39.7301
Au 31.1128 1.9058 21.0058
Au 31.1138 49.8388 18.6197
Au 31.1141 25.8445 32.8217
Au 31.1142 77.5667 20.1200
Au 31.1168 61.5625 38.8513
Au 31.1195 24.9306 4.3800
Au 31.1197 44.3669 25.9132
Au 31.1263 64.3655 32.3680
Au 31.1350 5.6313 22.6643
Au 31.1357 67.1685 25.8847
Au 31.1416 28.6560 6.0384
Au 31.1448 15.6444 37.3696
Au 31.1452 69.9715 19.4014
Au 31.1478 53.9672 38.1327
Au 31.1504 34.1668 30.4612
Au 31.1547 72.7745 12.9181
Au 31.1573 56.7702 31.6494
Au 31.1638 32.3815 7.6969
Au 31.1642 75.5775 6.4347
Au 31.1668 59.5732 25.1661
Au 31.1762 62.3762 18.6828
Au 31.1810 23.9668 35.0091
Au 31.1857 65.1792 12.1994
Au 31.1860 36.1070 9.3553
Au 31.1866 42.4892 28.1007
Au 31.1952 67.9822 5.7161
Au 31.1978 51.9780 24.4474
Au 31.2073 54.7810 17.9641
Au 31.2082 39.8325 11.0138
Au 31.2117 13.7668 39.5571
Au 31.2167 57.5840 11.4808
Au 31.2173 32.2892 32.6486
Au 31.2262 60.3870 4.9975
Au 31.2304 43.5579 12.6722
Au 31.2480 22.0891 37.1966
Au 31.2526 47.2834 14.3306
Au 31.2536 40.6116 30.2882
Au 31.2583 22.3752 0.0909
Au 31.2738 3.0759 18.3752
Au 31.2748 51.0089 15.9891
Au 31.2805 26.1006 1.7494
Au 31.2843 30.4115 34.8361
Au 31.2960 6.8013 20.0337
Au 31.3027 29.8261 3.4078
Au 31.3150 20.2115 39.3840
Au 31.3206 38.7339 32.4756
Au 31.3248 33.5516 5.0663
Au 31.3470 37.2771 6.7247
Au 31.3513 28.5339 37.0236
Au 31.3569 47.0563 30.1151
Au 31.3692 41.0025 8.3832
Au 31.3875 36.8563 34.6631
Au 31.3914 44.7280 10.0416
Au 31.3990 74.1250 39.1529
Au 31.4085 76.9279 32.6696
Au 31.4126 0.5205 14.0862
Au 31.4136 48.4535 11.7001
Au 31.4179 79.7309 26.1862
Au 31.4182 26.6562 39.2110
Au 31.4238 45.1787 32.3026
Au 31.4300 66.5297 38.4342
Au 31.4348 4.2460 15.7446
Au 31.4395 69.3327 31.9509
Au 31.4490 72.1357 25.4676
Au 31.4545 34.9786 36.8505
Au 31.4570 7.9714 17.4031
Au 31.4584 74.9387 18.9843
Au 31.4610 58.9344 37.7156
Au 31.4637 30.9962 0.7772
Au 31.4679 77.7417 12.5010
Au 31.4705 61.7374 31.2323
Au 31.4792 11.6969 19.0615
Au 31.4800 64.5404 24.7490
Au 31.4858 34.7217 2.4357
Au 31.4895 67.3434 18.2657
Au 31.4908 43.3010 34.4900
Au 31.4921 51.3392 36.9970
Au 31.4989 70.1464 11.7824
Au 31.5014 15.4224 20.7200
Au 31.5015 54.1422 30.5137
Au 31.5080 38.4472 4.0941
Au 31.5084 72.9494 5.2990
Au 31.5110 56.9452 24.0304
Au 31.5205 59.7482 17.5470
Au 31.5215 33.1010 39.0380
Au 31.5236 19.1478 22.3784
Au 31.5300 62.5512 11.0637
Au 31.5302 42.1726 5.7526
Au 31.5394 65.3542 4.5804
Au 31.5420 49.3499 23.3117
Au 31.5524 45.8981 7.4110
Au 31.5578 41.4234 36.6775
Au 31.5610 54.9559 10.3451
Au 31.5705 57.7589 3.8618
Au 31.5736 1.6906 11.4556
Au 31.5746 49.6236 9.0695
Au 31.5958 5.4160 13.1140
Au 31.6172 3.6983 25.2003
Au 31.6180 9.1415 14.7725
Au 31.6247 39.5457 38.8650
Au 31.6402 12.8670 16.4309
Au 31.6610 47.8681 36.5045
Au 31.6624 16.5925 18.0894
Au 31.6690 39.6172 1.4635
Au 31.6841 1.8206 27.3877
Au 31.6846 20.3179 19.7478
Au 31.6912 43.3427 3.1220
Au 31.7067 24.0434 21.4063
Au 31.7122 79.0922 38.7358
Au 31.7134 47.0682 4.7804
Au 31.7204 10.1430 25.0272
Au 31.7280 45.9904 38.6919
Au 31.7346 2.8607 8.8250
Au 31.7356 50.7937 6.4389
Au 31.7432 71.4969 38.0172
Au 31.7527 74.2999 31.5338
Au 31.7568 6.5861 10.4834
Au 31.7622 77.1029 25.0505
Au 31.7717 79.9059 18.5672
Au 31.7743 63.9016 37.2985
Au 31.7790 10.3116 12.1419
Au 31.7837 66.7046 30.8152
Au 31.7874 8.2653 27.2147
Au 31.7932 69.5076 24.3319
Au 31.8012 14.0371 13.8003
Au 31.8027 72.3106 17.8486
Au 31.8053 56.3064 36.5799
Au 31.8122 75.1136 11.3653
Au 31.8148 59.1094 30.0966
Au 31.8216 77.9166 4.8820
Au 31.8234 17.7625 15.4588
Au 31.8237 16.5877 24.8542
Au 31.8242 61.9124 23.6133
Au 31.8337 64.7154 17.1300
Au 31.8432 67.5184 10.6466
Au 31.8456 21.4880 17.1172
Au 31.8458 51.5141 29.3780
Au 31.8522 44.5128 0.4914
Au 31.8527 70.3214 4.1633
Au 31.8543 6.3877 29.4022
Au 31.8553 54.3171 22.8946
Au 31.8648 57.1201 16.4113
Au 31.8677 25.2135 18.7757
Au 31.8734 0.3053 4.5360
Au 31.8742 59.9231 9.9280
Au 31.8744 48.2383 2.1498
Au 31.8837 62.7261 3.4447
Au 31.8899 28.9390 20.4341
Au 31.8906 14.7101 27.0417
Au 31.8956 4.0307 6.1944
Au 31.8966 51.9637 3.8083
Au 31.9121 32.6644 22.0926
Au 31.9178 7.7562 7.8528
Au 31.9213 4.5100 31.5896
Au 31.9269 23.0325 24.6812
Au 31.9343 36.3899 23.7510
Au 31.9400 11.4817 9.5113
Au 31.9576 12.8324 29.2291
Au 31.9622 15.2072 11.1697
Au 31.9844 18.9326 12.8282
Au 31.9883 2.6324 33.7771
Au 31.9939 21.1548 26.8686
Au 32.0066 22.6581 14.4866
Au 32.0246 10.9548 31.4166
Au 32.0288 26.3836 16.1451
Au 32.0302 29.4772 24.5082
Au 32.0344 1.4753 1.9054
Au 32.0509 30.1090 17.8035
Au 32.0553 0.7547 35.9645
Au 32.0565 76.4641 37.6001
Au 32.0566 5.2008 3.5638
Au 32.0576 53.1338 1.1777
Au 32.0609 19.2772 29.0561
Au 32.0659 79.2671 31.1168
Au 32.0731 33.8345 19.4620
Au 32.0788 8.9263 5.2223
Au 32.0875 68.8688 36.8814
Au 32.0915 9.0771 33.6040
Au 32.0953 37.5600 21.1204
Au 32.0970 71.6718 30.3981
Au 32.0971 27.5995 26.6956
Au 32.1010 12.6518 6.8807
Au 32.1065 74.4748 23.9148
Au 32.1159 77.2778 17.4315
Au 32.1175 41.2855 22.7789
Au 32.1185 61.2736 36.1628
Au 32.1232 16.3772 8.5391
Au 32.1278 17.3995 31.2436
Au 32.1280 64.0766 29.6795
Au 32.1375 66.8796 23.1962
Au 32.1454 20.1027 10.1976
Au 32.1470 69.6826 16.7129
Au 32.1496 53.6783 35.4442
Au 32.1564 72.4856 10.2296
Au 32.1585 7.1995 35.7915
Au 32.1590 56.4813 28.9609
Au 32.1641 25.7219 28.8831
Au 32.1659 75.2886 3.7462
Au 32.1676 23.8282 11.8560
Au 32.1685 59.2843 22.4776
Au 32.1780 62.0873 15.9942
Au 32.1875 64.8903 9.5109
Au 32.1898 27.5537 13.5145
Au 32.1901 48.8861 28.2423
Au 32.1948 15.5218 33.4310
Au 32.1969 67.6933 3.0276
Au 32.1995 51.6891 21.7589
Au 32.2004 34.0443 26.5226
Au 32.2090 54.4921 15.2756
Au 32.2119 31.2791 15.1729
Au 32.2176 6.3709 0.9332
Au 32.2185 57.2950 8.7923
Au 32.2255 5.3218 37.9790
Au 32.2280 60.0980 2.3090
Au 32.2311 23.8442 31.0705
Au 32.2341 35.0046 16.8314
Au 32.2398 10.0964 2.5917
Au 32.2563 38.7301 18.4898
Au 32.2618 13.6442 35.6185
Au 32.2620 13.8219 4.2501
Au 32.2674 32.1666 28.7100
Au 32.2785 42.4556 20.1483
Au 32.2842 17.5473 5.9086
Au 32.2980 21.9666 33.2580
Au 32.3007 46.1810 21.8067
Au 32.3036 40.4890 26.3496
Au 32.3064 21.2728 7.5670
Au 32.3286 24.9983 9.2254
Au 32.3287 11.7665 37.8059
Au 32.3343 30.2890 30.8975
Au 32.3508 28.7237 10.8839
Au 32.3650 20.0889 35.4454
Au 32.3706 38.6114 28.5370
Au 32.3730 32.4492 12.5423
Au 32.3951 36.1747 14.2008
Au 32.3957 9.8889 39.9934
Au 32.4007 73.8360 36.4644
Au 32.4013 28.4113 33.0850
Au 32.4069 46.9338 26.1765
Au 32.4102 76.6390 29.9810
Au 32.4173 39.9002 15.8592
Au 32.4197 79.4420 23.4977
Au 32.4230 14.9919 1.6195
Au 32.4318 66.2408 35.7457
Au 32.4320 18.2113 37.6329
Au 32.4376 36.7337 30.7245
Au 32.4395 43.6256 17.5177
Au 32.4412 69.0438 29.2624
Au 32.4452 18.7174 3.2780
Au 32.4507 71.8468 22.7791
Au 32.4602 74.6498 16.2958
Au 32.4617 47.3511 19.1761
Au 32.4628 58.6455 35.0271
Au 32.4674 22.4429 4.9364
Au 32.4683 26.5337 35.2724
Au 32.4697 77.4528 9.8125
Au 32.4723 61.4485 28.5438
Au 32.4739 45.0561 28.3640
Au 32.4817 64.2515 22.0605
Au 32.4829 3.1436 23.2207
Au 32.4896 26.1684 6.5949
Au 32.4912 67.0545 15.5772
Au 32.4938 51.0503 34.3085
Au 32.4989 16.3336 39.8204
Au 32.5007 69.8575 9.0938
Au 32.5033 53.8533 27.8252
Au 32.5045 34.8561 32.9119
Au 32.5102 72.6605 2.6105
Au 32.5118 29.8938 8.2533
Au 32.5128 56.6563 21.3419
Au 32.5222 59.4593 14.8585
Au 32.5317 62.2622 8.3752
Au 32.5340 33.6193 9.9117
Au 32.5352 24.6560 37.4599
Au 32.5408 43.1784 30.5515
Au 32.5412 65.0652 1.8919
Au 32.5533 51.8640 14.1399
Au 32.5561 37.3448 11.5702
Au 32.5628 54.6670 7.6566
Au 32.5715 32.9784 35.0994
Au 32.5722 57.4700 1.1733
Au 32.5783 41.0703 13.2286
Au 32.6005 44.7957 14.8871
Au 32.6022 22.7783 39.6473
Au 32.6062 19.8875 0.6474
Au 32.6078 41.3008 32.7389
Au 32.6217 0.5882 18.9317
Au 32.6227 48.5212 16.5455
Au 32.6284 23.6130 2.3058
Au 32.6385 31.1007 37.2868
Au 32.6439 4.3137 20.5901
Au 32.6506 27.3384 3.9643
Au 32.6661 8.0391 22.2485
Au 32.6728 31.0639 5.6227
Au 32.6748 39.4231 34.9264
Au 32.6883 11.7646 23.9070
Au 32.6950 34.7894 7.2811
Au 32.7055 29.2231 39.4743
Au 32.7111 47.7455 32.5659
Au 32.7140 78.8032 36.0473
Au 32.7171 38.5149 8.9396
Au 32.7393 42.2403 10.5980
Au 32.7417 37.5455 37.1138
Au 32.7450 71.2080 35.3287
Au 32.7545 74.0110 28.8453
Au 32.7615 45.9658 12.2565
Au 32.7639 76.8140 22.3620
Au 32.7734 79.6170 15.8787
Au 32.7760 63.6127 34.6100
Au 32.7780 45.8679 34.7533
Au 32.7827 1.7583 16.3011
Au 32.7837 49.6913 13.9149
Au 32.7855 66.4157 28.1267
Au 32.7950 69.2187 21.6434
Au 32.8045 72.0217 15.1601
Au 32.8049 5.4837 17.9595
Au 32.8071 56.0175 33.8914
Au 32.8087 35.6678 39.3013
Au 32.8116 28.5085 1.3337
Au 32.8139 74.8247 8.6768
Au 32.8165 58.8205 27.4081
Au 32.8234 77.6277 2.1934
Au 32.8260 61.6235 20.9248
Au 32.8271 9.2092 19.6180
Au 32.8338 32.2340 2.9921
Au 32.8355 64.4264 14.4415
Au 32.8450 67.2294 7.9581
Au 32.8450 43.9902 36.9408
Au 32.8476 51.2252 26.6895
Au 32.8493 12.9347 21.2764
Au 32.8544 70.0324 1.4748
Au 32.8560 35.9595 4.6506
Au 32.8570 54.0282 20.2061
Au 32.8665 56.8312 13.7228
Au 32.8715 16.6602 22.9348
Au 32.8760 59.6342 7.2395
Au 32.8782 39.6849 6.3090
Au 32.8855 62.4372 0.7562
Au 32.9003 43.4104 7.9674
Au 32.9044 6.2651 25.4636
Au 32.9120 42.1126 39.1283
Au 32.9225 47.1359 9.6259
Au 32.9437 2.9284 13.6705
Au 32.9447 50.8614 11.2843
Au 32.9659 6.6538 15.3289
Au 32.9714 4.3875 27.6510
Au 32.9881 10.3793 16.9874
Au 32.9948 33.4041 0.3615
Au 33.0103 14.1048 18.6458
Au 33.0170 37.1296 2.0200
Au 33.0325 17.8303 20.3042
Au 33.0383 2.5098 29.8385
Au 33.0392 40.8550 3.6784
Au 33.0547 21.5557 21.9627
Au 33.0582 76.1752 34.9116
Au 33.0613 44.5805 5.3369
Au 33.0677 78.9782 28.4283
Au 33.0746 10.8322 27.4780
Au 33.0769 25.2812 23.6211
Au 33.0825 0.3730 9.3814
Au 33.0835 48.3060 6.9953
Au 33.0893 68.5799 34.1929
Au 33.0987 71.3829 27.7096
Au 33.1047 4.0984 11.0399
Au 33.1053 0.6322 32.0259
Au 33.1057 52.0315 8.6537
Au 33.1082 74.1859 21.2263
Au 33.1108 58.1817 39.9576
Au 33.1109 19.1546 25.1175
Au 33.1177 76.9889 14.7430
Au 33.1203 60.9847 33.4743
Au 33.1269 7.8239 12.6983
Au 33.1272 79.7919 8.2597
Au 33.1298 63.7877 26.9910
Au 33.1392 66.5907 20.5077
Au 33.1416 8.9545 29.6655
Au 33.1418 50.5864 39.2390
Au 33.1487 69.3936 14.0244
Au 33.1491 11.5494 14.3568
Au 33.1513 53.3894 32.7557
Au 33.1582 72.1966 7.5411
Au 33.1608 56.1924 26.2724
Au 33.1677 74.9996 1.0577
Au 33.1703 58.9954 19.7891
Au 33.1713 15.2749 16.0152
Au 33.1779 17.2769 27.3050
Au 33.1797 61.7984 13.3057
Au 33.1892 64.6014 6.8224
Au 33.1918 48.5971 25.5537
Au 33.1935 19.0003 17.6737
Au 33.1987 67.4044 0.3391
Au 33.2002 42.0251 1.0478
Au 33.2013 51.4001 19.0704
Au 33.2085 7.0769 31.8529
Au 33.2108 54.2031 12.5871
Au 33.2157 22.7258 19.3321
Au 33.2202 57.0061 6.1038
Au 33.2224 45.7506 2.7063
Au 33.2379 26.4513 20.9905
Au 33.2435 1.5431 6.7508
Au 33.2445 49.4761 4.3647
Au 33.2448 15.3993 29.4924
Au 33.2601 30.1768 22.6490
Au 33.2657 5.2685 8.4093
Au 33.2667 53.2015 6.0232
Au 33.2755 5.1992 34.0404
Au 33.2811 23.7217 27.1319
Au 33.2822 33.9022 24.3074
Au 33.2879 8.9940 10.0677
Au 33.3101 12.7195 11.7262
Au 33.3118 13.5216 31.6799
Au 33.3323 16.4450 13.3846
Au 33.3425 3.3216 36.2278
Au 33.3481 21.8440 29.3194
Au 33.3545 20.1704 15.0431
Au 33.3767 23.8959 16.7015
Au 33.3788 11.6440 33.8673
Au 33.3834 46.9207 0.0757
Au 33.3844 30.1664 26.9589
Au 33.3989 27.6214 18.3600
Au 33.4025 73.5471 33.7759
Au 33.4045 2.7131 4.1202
Au 33.4055 50.6462 1.7341
Au 33.4094 1.4439 38.4153
Au 33.4120 76.3501 27.2925
Au 33.4150 19.9664 31.5069
Au 33.4211 31.3468 20.0184
Au 33.4214 79.1531 20.8092
Au 33.4240 63.1489 39.5405
Au 33.4267 6.4386 5.7787
Au 33.4277 54.3716 3.3926
Au 33.4335 65.9519 33.0572
Au 33.4430 68.7549 26.5739
Au 33.4433 35.0723 21.6768
Au 33.4457 9.7663 36.0548
Au 33.4489 10.1641 7.4371
Au 33.4513 28.2888 29.1464
Au 33.4525 71.5578 20.0906
Au 33.4551 55.5536 38.8219
Au 33.4619 74.3608 13.6073
Au 33.4645 58.3566 32.3386
Au 33.4654 38.7978 23.3353
Au 33.4711 13.8896 9.0956
Au 33.4714 77.1638 7.1240
Au 33.4740 61.1596 25.8553
Au 33.4809 79.9668 0.6407
Au 33.4820 18.0887 33.6943
Au 33.4835 63.9626 19.3720
Au 33.4876 36.6111 26.7859
Au 33.4876 42.5233 24.9937
Au 33.4930 66.7656 12.8887
Au 33.4933 17.6150 10.7540
Au 33.4956 50.7613 31.6200
Au 33.5024 69.5686 6.4053
Au 33.5050 53.5643 25.1367
Au 33.5127 7.8887 38.2423
Au 33.5145 56.3673 18.6533
Au 33.5155 21.3405 12.4125
Au 33.5183 26.4111 31.3338
Au 33.5240 59.1703 12.1700
Au 33.5335 61.9733 5.6867
Au 33.5377 25.0660 14.0709
Au 33.5490 16.2111 35.8818
Au 33.5546 34.7335 28.9733
Au 33.5599 28.7915 15.7294
Au 33.5655 3.8832 1.4896
Au 33.5821 32.5169 17.3878
Au 33.5853 24.5334 33.5213
Au 33.5877 7.6087 3.1481
Au 33.5887 55.5417 0.7620
Au 33.6043 36.2424 19.0463
Au 33.6099 11.3342 4.8065
Au 33.6160 14.3334 38.0692
Au 33.6216 32.8558 31.1608
Au 33.6264 39.9679 20.7047
Au 33.6321 15.0597 6.4650
Au 33.6486 43.6934 22.3631
Au 33.6522 22.6558 35.7087
Au 33.6543 18.7851 8.1234
Au 33.6578 41.1782 28.8003
Au 33.6708 47.4188 24.0216
Au 33.6765 22.5106 9.7819
Au 33.6885 30.9782 33.3483
Au 33.6987 26.2361 11.4403
Au 33.7062 75.7113 39.8421
Au 33.7157 78.5143 33.3588
Au 33.7192 20.7781 37.8962
Au 33.7209 29.9615 13.0988
Au 33.7248 39.3006 30.9878
Au 33.7373 68.1161 39.1235
Au 33.7431 33.6870 14.7572
Au 33.7467 70.9191 32.6401
Au 33.7487 8.7788 0.5175
Au 33.7555 29.1005 35.5357
Au 33.7562 73.7221 26.1568
Au 33.7653 37.4125 16.4157
Au 33.7657 76.5250 19.6735
Au 33.7683 60.5208 38.4048
Au 33.7709 12.5043 2.1759
Au 33.7752 79.3280 13.1902
Au 33.7778 63.3238 31.9215
Au 33.7873 66.1268 25.4382
Au 33.7874 41.1380 18.0741
Au 33.7918 37.4229 33.1752
Au 33.7931 16.2297 3.8344
Au 33.7967 68.9298 18.9549
Au 33.7993 52.9256 37.6862
Au 33.8062 71.7328 12.4716
Au 33.8088 55.7285 31.2029
Au 33.8096 44.8634 19.7325
Au 33.8153 19.9552 5.4928
Au 33.8157 74.5358 5.9883
Au 33.8183 58.5315 24.7196
Au 33.8225 27.2229 37.7232
Au 33.8278 61.3345 18.2363
Au 33.8281 45.7453 30.8148
Au 33.8308 0.6559 23.7771
Au 33.8318 48.5889 21.3910
Au 33.8372 64.1375 11.7529
Au 33.8375 23.6807 7.1513
Au 33.8398 48.1333 30.4843
Au 33.8467 66.9405 5.2696
Au 33.8493 50.9363 24.0010
Au 33.8587 35.5453 35.3627
Au 33.8588 53.7393 17.5176
Au 33.8597 27.4062 8.8097
Au 33.8683 56.5423 11.0343
Au 33.8777 59.3453 4.5510
Au 33.8819 31.1316 10.4682
Au 33.8894 25.3452 39.9106
Au 33.8950 43.8676 33.0022
Au 33.9041 34.8571 12.1266
Au 33.9257 33.6676 37.5501
Au 33.9263 38.5826 13.7851
Au 33.9485 42.3080 15.4435
Au 33.9541 17.3998 1.2038
Au 33.9620 41.9900 35.1897
Au 33.9706 46.0335 17.1020
Au 33.9763 21.1253 2.8622
Au 33.9918 1.8260 21.1465
Au 33.9927 31.7899 39.7376
Au 33.9985 24.8508 4.5207
Au 34.0140 5.5515 22.8050
Au 34.0207 28.5762 6.1791
Au 34.0290 40.1123 37.3771
Au 34.0362 9.2769 24.4634
Au 34.0429 32.3017 7.8376
Au 34.0505 73.0833 38.7064
Au 34.0600 75.8863 32.2231
Au 34.0651 36.0272 9.4960
Au 34.0695 78.6892 25.7397
Au 34.0815 65.4880 37.9878
Au 34.0873 39.7527 11.1545
Au 34.0884 2.3872 25.8999
Au 34.0910 68.2910 31.5044
Au 34.0959 38.2347 39.5646
Au 34.1005 71.0940 25.0211
Au 34.1095 43.4781 12.8129
Au 34.1100 73.8970 18.5378
Au 34.1126 57.8927 37.2691
Au 34.1194 76.7000 12.0545
Au 34.1220 60.6957 30.7858
Au 34.1289 79.5030 5.5712
Au 34.1315 63.4987 24.3025
Au 34.1316 47.2036 14.4714
Au 34.1322 46.5571 37.2041
Au 34.1373 22.2954 0.2317
Au 34.1410 66.3017 17.8192
Au 34.1436 50.2975 36.5505
Au 34.1505 69.1047 11.3359
Au 34.1528 2.9961 18.5159
Au 34.1531 53.1005 30.0672
Au 34.1553 0.5096 28.0873
Au 34.1595 26.0209 1.8901
Au 34.1599 71.9077 4.8525
Au 34.1625 55.9035 23.5839
Au 34.1720 58.7065 17.1006
Au 34.1750 6.7215 20.1744
Au 34.1815 61.5095 10.6172
Au 34.1817 29.7463 3.5485
Au 34.1910 64.3125 4.1339
Au 34.1972 10.4470 21.8328
Au 34.1992 44.6794 39.3916
Au 34.2030 51.1112 16.3819
Au 34.2039 33.4718 5.2070
Au 34.2125 53.9142 9.8986
Au 34.2194 14.1725 23.4913
Au 34.2220 56.7172 3.4153
Au 34.2261 37.1973 6.8654
Au 34.2483 40.9227 8.5239
Au 34.2586 6.9543 27.9143
Au 34.2705 44.6482 10.1823
Au 34.2916 0.4407 14.2269
Au 34.2927 48.3737 11.8408
Au 34.3138 4.1662 15.8853
Au 34.3255 5.0767 30.1018
Au 34.3360 7.8916 17.5438
Au 34.3427 30.9164 0.9179
Au 34.3582 11.6171 19.2022
Au 34.3618 13.3991 27.7413
Au 34.3637 78.0505 38.2893
Au 34.3649 34.6419 2.5764
Au 34.3804 15.3426 20.8607
Au 34.3871 38.3674 4.2348
Au 34.3925 3.1990 32.2892
Au 34.3948 70.4552 37.5707
Au 34.4026 19.0681 22.5191
Au 34.4042 73.2582 31.0874
Au 34.4093 42.0928 5.8933
Au 34.4137 76.0612 24.6040
Au 34.4232 78.8642 18.1207
Au 34.4248 22.7935 24.1776
Au 34.4258 62.8599 36.8520
Au 34.4288 11.5214 29.9287
Au 34.4315 45.8183 7.5517
Au 34.4353 65.6629 30.3687
Au 34.4447 68.4659 23.8854
Au 34.4526 1.6108 11.5963
Au 34.4537 49.5438 9.2102
Au 34.4542 71.2689 17.4021
Au 34.4568 55.2647 36.1334
Au 34.4595 1.3214 34.4767
Au 34.4637 74.0719 10.9188
Au 34.4651 19.8438 27.5683
Au 34.4663 58.0677 29.6501
Au 34.4732 76.8749 4.4355
Au 34.4748 5.3362 13.2548
Au 34.4758 60.8707 23.1668
Au 34.4852 63.6737 16.6835
Au 34.4878 47.6694 35.4148
Au 34.4947 66.4767 10.2002
Au 34.4958 9.6438 32.1162
Au 34.4970 9.0617 14.9132
Au 34.4973 50.4724 28.9315
Au 34.5042 69.2797 3.7168
Au 34.5068 53.2754 22.4482
Au 34.5163 56.0784 15.9648
Au 34.5192 12.7872 16.5716
Au 34.5258 58.8814 9.4815
Au 34.5320 17.9661 29.7557
Au 34.5352 61.6844 2.9982
Au 34.5414 16.5127 18.2301
Au 34.5481 39.5374 1.6042
Au 34.5627 7.7661 34.3037
Au 34.5636 20.2381 19.8885
Au 34.5703 43.2629 3.2627
Au 34.5858 23.9636 21.5470
Au 34.5925 46.9884 4.9211
Au 34.5990 16.0885 31.9432
Au 34.6080 27.6891 23.2054
Au 34.6136 2.7809 8.9657
Au 34.6147 50.7139 6.5796
Au 34.6297 5.8884 36.4911
Au 34.6302 31.4146 24.8639
Au 34.6353 24.4109 29.5827
Au 34.6358 6.5063 10.6242
Au 34.6580 10.2318 12.2826
Au 34.6660 14.2108 34.1306
Au 34.6716 32.7333 27.2222
Au 34.6802 13.9573 13.9410
Au 34.6967 4.0108 38.6786
Au 34.7023 22.5332 31.7702
Au 34.7024 17.6828 15.5995
Au 34.7080 75.4224 37.1536
Au 34.7175 78.2254 30.6703
Au 34.7246 21.4082 17.2579
Au 34.7313 44.4330 0.6321
Au 34.7330 12.3332 36.3181
Au 34.7386 30.8556 29.4097
Au 34.7390 67.8271 36.4350
Au 34.7468 25.1337 18.9164
Au 34.7485 70.6301 29.9516
Au 34.7524 0.2255 4.6767
Au 34.7535 48.1585 2.2905
Au 34.7580 73.4331 23.4683
Au 34.7675 76.2361 16.9850
Au 34.7690 28.8592 20.5748
Au 34.7692 20.6556 33.9576
Au 34.7701 60.2319 35.7163
Au 34.7746 3.9509 6.3351
Au 34.7748 39.1780 27.0492
Au 34.7757 51.8839 3.9490
Au 34.7769 79.0391 10.5017
Au 34.7795 63.0349 29.2330
Au 34.7890 65.8379 22.7497
Au 34.7912 32.5846 22.2333
Au 34.7968 7.6764 7.9936
Au 34.7985 68.6409 16.2664
Au 34.7999 10.4555 38.5056
Au 34.8011 52.6366 34.9977
Au 34.8055 28.9780 31.5971
Au 34.8080 71.4439 9.7831
Au 34.8106 55.4396 28.5144
Au 34.8134 36.3101 23.8917
Au 34.8174 74.2469 3.2998
Au 34.8190 11.4019 9.6520
Au 34.8200 58.2426 22.0311
Au 34.8295 61.0456 15.5478
Au 34.8362 18.7779 36.1451
Au 34.8390 63.8486 9.0644
Au 34.8412 15.1274 11.3105
Au 34.8416 47.8444 27.7958
Au 34.8418 37.3003 29.2366
Au 34.8485 66.6516 2.5811
Au 34.8511 50.6474 21.3124
Au 34.8605 53.4504 14.8291
Au 34.8634 18.8528 12.9689
Au 34.8700 56.2534 8.3458
Au 34.8725 27.1003 33.7846
Au 34.8781 45.6227 26.8762
Au 34.8795 59.0564 1.8625
Au 34.8856 22.5783 14.6273
Au 34.9032 16.9003 38.3325
Au 34.9078 26.3038 16.2858
Au 34.9088 35.4227 31.4241
Au 34.9135 1.3956 2.0461
Au 34.9300 30.0293 17.9442
Au 34.9356 5.1210 3.7045
Au 34.9367 53.0540 1.3184
Au 34.9395 25.2226 35.9720
Au 34.9451 43.7451 29.0636
Au 34.9522 33.7547 19.6027
Au 34.9578 8.8465 5.3630
Au 34.9744 37.4802 21.2611
Au 34.9757 33.5450 33.6116
Au 34.9800 12.5720 7.0214
Au 34.9966 41.2057 22.9196
Au 35.0022 16.2974 8.6799
Au 35.0064 23.3450 38.1595
Au 35.0120 41.8674 31.2511
Au 35.0188 44.9311 24.5780
Au 35.0244 20.0229 10.3383
Au 35.0427 31.6674 35.7990
Au 35.0466 23.7484 11.9968
Au 35.0523 72.7943 36.0179
Au 35.0617 75.5973 29.5346
Au 35.0688 27.4739 13.6552
Au 35.0712 78.4003 23.0512
Au 35.0790 39.9898 33.4385
Au 35.0833 65.1991 35.2992
Au 35.0910 31.1993 15.3136
Au 35.0928 68.0021 28.8159
Au 35.0966 6.2911 1.0739
Au 35.1022 70.8051 22.3326
Au 35.1097 29.7897 37.9865
Au 35.1117 73.6081 15.8493
Au 35.1132 34.9248 16.9721
Au 35.1143 57.6038 34.5806
Au 35.1188 10.0166 2.7324
Au 35.1212 76.4111 9.3660
Au 35.1238 60.4068 28.0973
Au 35.1307 79.2141 2.8827
Au 35.1333 63.2098 21.6140
Au 35.1354 38.6503 18.6305
Au 35.1410 13.7421 4.3908
Au 35.1427 66.0128 15.1307
Au 35.1453 50.0086 33.8620
Au 35.1460 38.1121 35.6260
Au 35.1522 68.8158 8.6474
Au 35.1548 52.8116 27.3787
Au 35.1576 42.3758 20.2890
Au 35.1617 71.6188 2.1640
Au 35.1632 17.4675 6.0493
Au 35.1643 55.6146 20.8954
Au 35.1738 58.4176 14.4120
Au 35.1798 46.1012 21.9474
Au 35.1823 46.4345 33.2655
Au 35.1832 61.2206 7.9287
Au 35.1854 21.1930 7.7077
Au 35.1927 64.0235 1.4454
Au 35.2076 24.9185 9.3662
Au 35.2129 36.2345 37.8134
Au 35.2143 53.6253 7.2101
Au 35.2237 56.4283 0.7268
Au 35.2298 28.6440 11.0246
Au 35.2492 44.5569 35.4530
Au 35.2520 32.3694 12.6831
Au 35.2742 36.0949 14.3415
Au 35.2798 11.1867 0.1018
Au 35.2964 39.8204 15.9999
Au 35.3020 14.9121 1.7602
Au 35.3162 42.6792 37.6404
Au 35.3186 43.5458 17.6584
Au 35.3242 18.6376 3.4187
Au 35.3408 47.2713 19.3168
Au 35.3464 22.3631 5.0771
Au 35.3619 3.0638 23.3614
Au 35.3655 77.7615 35.6008
Au 35.3686 26.0886 6.7356
Au 35.3832 40.8015 39.8279
Au 35.3841 6.7893 25.0199
Au 35.3908 29.8140 8.3940
Au 35.3965 70.1663 34.8822
Au 35.4060 72.9693 28.3988
Au 35.4063 10.5147 26.6783
Au 35.4130 33.5395 10.0525
Au 35.4155 75.7723 21.9155
Au 35.4249 78.5753 15.4322
Au 35.4275 62.5710 34.1635
Au 35.4352 37.2650 11.7109
Au 35.4370 65.3740 27.6802
Au 35.4425 3.0765 28.3506
Au 35.4465 68.1770 21.1969
Au 35.4491 52.1728 39.9282
Au 35.4560 70.9800 14.7136
Au 35.4574 40.9905 13.3694
Au 35.4586 54.9758 33.4449
Au 35.4654 73.7830 8.2303
Au 35.4680 57.7788 26.9616
Au 35.4749 76.5860 1.7470
Au 35.4775 60.5818 20.4783
Au 35.4796 44.7159 15.0278
Au 35.4852 19.8077 0.7881
Au 35.4870 63.3848 13.9950
Au 35.4965 66.1878 7.5116
Au 35.4991 50.1835 26.2430
Au 35.5007 0.5084 19.0724
Au 35.5018 48.4414 16.6862
Au 35.5060 68.9907 1.0283
Au 35.5074 23.5332 2.4465
Au 35.5086 52.9865 19.7597
Au 35.5095 1.1988 30.5381
Au 35.5180 55.7895 13.2763
Au 35.5229 4.2339 20.7308
Au 35.5275 58.5925 6.7930
Au 35.5296 27.2587 4.1050
Au 35.5370 61.3955 0.3097
Au 35.5451 7.9593 22.3893
Au 35.5458 9.5212 28.1776
Au 35.5518 30.9841 5.7634
Au 35.5673 11.6848 24.0477
Au 35.5740 34.7096 7.4219
Au 35.5895 15.4103 25.7062
Au 35.5962 38.4351 9.0803
Au 35.6128 7.6435 30.3651
Au 35.6184 42.1605 10.7388
Au 35.6406 45.8860 12.3972
Au 35.6491 15.9659 28.0046
Au 35.6617 1.6785 16.4418
Au 35.6628 49.6115 14.0556
Au 35.6797 5.7659 32.5525
Au 35.6839 5.4040 18.1002
Au 35.6906 28.4287 1.4744
Au 35.7061 9.1294 19.7587
Au 35.7097 75.1335 34.4651
Au 35.7128 32.1542 3.1328
Au 35.7160 14.0883 30.1920
Au 35.7192 77.9365 27.9818
Au 35.7283 12.8549 21.4171
Au 35.7350 35.8797 4.7913
Au 35.7408 67.5382 33.7465
Au 35.7467 3.8882 34.7400
Au 35.7503 70.3412 27.2631
Au 35.7505 16.5804 23.0756
Au 35.7523 22.4107 27.8316
Au 35.7572 39.6052 6.4497
Au 35.7597 73.1442 20.7798
Au 35.7623 57.1400 39.5111
Au 35.7692 75.9472 14.2965
Au 35.7718 59.9430 33.0278
Au 35.7727 20.3058 24.7340
Au 35.7787 78.7502 7.8132
Au 35.7794 43.3306 8.1082
Au 35.7813 62.7460 26.5445
Au 35.7830 12.2106 32.3795
Au 35.7908 65.5490 20.0612
Au 35.7934 49.5447 38.7925
Au 35.7949 24.0313 26.3924
Au 35.8002 68.3520 13.5779
Au 35.8016 47.0561 9.7666
Au 35.8028 52.3477 32.3092
Au 35.8097 71.1549 7.0946
Au 35.8123 55.1507 25.8259
Au 35.8137 2.0106 36.9274
Au 35.8192 73.9579 0.6112
Au 35.8193 20.5330 30.0190
Au 35.8218 57.9537 19.3426
Au 35.8227 2.8486 13.8112
Au 35.8238 50.7816 11.4251
Au 35.8313 60.7567 12.8593
Au 35.8407 63.5597 6.3759
Au 35.8433 47.5555 25.1073
Au 35.8449 6.5740 15.4696
Au 35.8500 10.3330 34.5670
Au 35.8528 50.3584 18.6239
Au 35.8556 28.8554 27.6585
Au 35.8623 53.1614 12.1406
Au 35.8671 10.2995 17.1281
Au 35.8718 55.9644 5.6573
Au 35.8738 33.3243 0.5022
Au 35.8806 0.1329 39.1149
Au 35.8862 18.6553 32.2065
Au 35.8893 14.0250 18.7865
Au 35.8960 37.0498 2.1607
Au 35.9115 17.7505 20.4450
Au 35.9169 8.4553 36.7544
Au 35.9182 40.7752 3.8191
Au 35.9225 26.9777 29.8460
Au 35.9337 21.4759 22.1034
Au 35.9404 44.5007 5.4776
Au 35.9532 16.7777 34.3939
Au 35.9559 25.2014 23.7619
Au 35.9616 0.2932 9.5221
Au 35.9626 48.2262 7.1360
Au 35.9781 28.9269 25.4203
Au 35.9838 4.0187 11.1806
Au 35.9839 6.5776 38.9419
Au 35.9848 51.9517 8.7945
Au 35.9895 25.1001 32.0335
Au 36.0059 7.7441 12.8390
Au 36.0202 14.9000 36.5814
Au 36.0258 33.4225 29.6730
Au 36.0281 11.4696 14.4975
Au 36.0445 69.7024 39.8127
Au 36.0503 15.1951 16.1559
Au 36.0540 72.5054 33.3294
Au 36.0565 23.2224 34.2209
Au 36.0635 75.3084 26.8461
Au 36.0725 18.9205 17.8144
Au 36.0730 78.1114 20.3627
Au 36.0756 62.1072 39.0941
Au 36.0792 41.9453 1.1885
Au 36.0850 64.9102 32.6107
Au 36.0871 13.0224 38.7688
Au 36.0927 31.5448 31.8604
Au 36.0945 67.7132 26.1274
Au 36.0947 22.6460 19.4728
Au 36.1014 45.6708 2.8470
Au 36.1040 70.5162 19.6441
Au 36.1066 54.5119 38.3754
Au 36.1135 73.3192 13.1608
Au 36.1161 57.3149 31.8921
Au 36.1169 26.3715 21.1313
Au 36.1226 1.4633 6.8916
Au 36.1229 76.1221 6.6775
Au 36.1234 21.3448 36.4084
Au 36.1236 49.3963 4.5054
Au 36.1255 60.1179 25.4088
Au 36.1290 39.8672 29.4999
Au 36.1324 78.9251 0.1942
Au 36.1350 62.9209 18.9255
Au 36.1376 46.9167 37.6568
Au 36.1391 30.0970 22.7897
Au 36.1445 65.7239 12.4422
Au 36.1448 5.1887 8.5500
Au 36.1471 49.7197 31.1735
Au 36.1540 68.5269 5.9589
Au 36.1566 52.5227 24.6902
Au 36.1597 29.6672 34.0479
Au 36.1613 33.8224 24.4482
Au 36.1660 55.3256 18.2069
Au 36.1669 8.9142 10.2084
Au 36.1755 58.1286 11.7235
Au 36.1835 37.5479 26.1066
Au 36.1850 60.9316 5.2402
Au 36.1891 12.6397 11.8669
Au 36.1904 19.4671 38.5958
Au 36.1960 37.9896 31.6874
Au 36.2057 41.2734 27.7650
Au 36.2113 16.3652 13.5253
Au 36.2267 27.7895 36.2353
Au 36.2335 20.0906 15.1838
Au 36.2557 23.8161 16.8422
Au 36.2624 46.8409 0.2164
Au 36.2630 36.1119 33.8749
Au 36.2779 27.5416 18.5007
Au 36.2836 2.6334 4.2610
Au 36.2846 50.5664 1.8748
Au 36.2937 25.9118 38.4228
Au 36.2993 44.4343 31.5144
Au 36.3001 31.2671 20.1591
Au 36.3058 6.3588 5.9194
Au 36.3068 54.2918 3.5333
Au 36.3223 34.9925 21.8176
Au 36.3280 10.0843 7.5779
Au 36.3299 34.2342 36.0623
Au 36.3445 38.7180 23.4760
Au 36.3501 13.8098 9.2363
Au 36.3578 74.6696 39.3956
Au 36.3662 42.5566 33.7018
Au 36.3667 42.4435 25.1345
Au 36.3672 77.4726 32.9123
Au 36.3723 17.5352 10.8947
Au 36.3888 67.0744 38.6770
Au 36.3945 21.2607 12.5532
Au 36.3969 32.3566 38.2498
Au 36.3983 69.8774 32.1937
Au 36.4077 72.6804 25.7103
Au 36.4167 24.9862 14.2116
Au 36.4172 75.4834 19.2270
Au 36.4198 59.4791 37.9584
Au 36.4267 78.2863 12.7437
Au 36.4293 62.2821 31.4750
Au 36.4332 40.6790 35.8893
Au 36.4388 65.0851 24.9917
Au 36.4389 28.7117 15.8701
Au 36.4446 3.8034 1.6304
Au 36.4482 67.8881 18.5084
Au 36.4508 51.8839 37.2397
Au 36.4577 70.6911 12.0251
Au 36.4603 54.6869 30.7564
Au 36.4611 32.4371 17.5285
Au 36.4668 7.5289 3.2888
Au 36.4672 73.4941 5.5418
Au 36.4698 57.4898 24.2731
Au 36.4793 60.2928 17.7898
Au 36.4833 36.1626 19.1870
Au 36.4888 63.0958 11.3065
Au 36.4890 11.2544 4.9473
Au 36.4914 47.0916 30.0378
Au 36.4982 65.8988 4.8231
Au 36.5002 38.8013 38.0767
Au 36.5008 49.8946 23.5545
Au 36.5055 39.8881 20.8454
Au 36.5103 52.6976 17.0711
Au 36.5111 14.9799 6.6057
Au 36.5198 55.5006 10.5878
Au 36.5277 43.6136 22.5039
Au 36.5293 58.3036 4.1045
Au 36.5333 18.7053 8.2641
Au 36.5555 22.4308 9.9226
Au 36.5777 26.1563 11.5810
Au 36.5999 29.8818 13.2395
Au 36.6221 33.6072 14.8979
Au 36.6278 8.6990 0.6582
Au 36.6443 37.3327 16.5564
Au 36.6500 12.4245 2.3167
Au 36.6665 41.0582 18.2148
Au 36.6710 79.6368 38.9785
Au 36.6721 16.1499 3.9751
Au 36.6887 44.7836 19.8733
Au 36.6943 19.8754 5.6336
Au 36.7020 72.0416 38.2599
Au 36.7099 0.5761 23.9178
Au 36.7115 74.8446 31.7766
Au 36.7165 23.6009 7.2920
Au 36.7210 77.6476 25.2933
Au 36.7298 5.6433 28.6139
Au 36.7320 4.3016 25.5763
Au 36.7331 64.4463 37.5413
Au 36.7387 27.3264 8.9504
Au 36.7425 67.2493 31.0579
Au 36.7520 70.0523 24.5746
Au 36.7542 8.0271 27.2347
Au 36.7609 31.0518 10.6089
Au 36.7615 72.8553 18.0913
Au 36.7641 56.8511 36.8226
Au 36.7710 75.6583 11.6080
Au 36.7736 59.6541 30.3393
Au 36.7804 78.4613 5.1247
Au 36.7830 62.4570 23.8560
Au 36.7831 34.7773 12.2673
Au 36.7925 65.2600 17.3727
Au 36.7951 49.2558 36.1040
Au 36.7967 3.7657 30.8014
Au 36.8020 68.0630 10.8894
Au 36.8046 52.0588 29.6207
Au 36.8053 38.5028 13.9258
Au 36.8115 70.8660 4.4061
Au 36.8141 54.8618 23.1374
Au 36.8235 57.6648 16.6541
Au 36.8275 42.2283 15.5842
Au 36.8330 60.4678 10.1707
Au 36.8330 12.0880 28.4409
Au 36.8332 17.3200 1.3445
Au 36.8425 63.2708 3.6874
Au 36.8497 45.9537 17.2427
Au 36.8546 50.0695 15.9354
Au 36.8553 21.0455 3.0030
Au 36.8637 1.8880 32.9889
Au 36.8709 1.7462 21.2872
Au 36.8775 24.7710 4.6614
Au 36.8931 5.4717 22.9457
Au 36.8997 28.4964 6.3199
Au 36.9000 10.2104 30.6284
Au 36.9152 9.1971 24.6041
Au 36.9219 32.2219 7.9783
Au 36.9307 0.0103 35.1763
Au 36.9374 12.9226 26.2626
Au 36.9441 35.9474 9.6367
Au 36.9663 39.6729 11.2952
Au 36.9670 8.3327 32.8158
Au 36.9885 43.3983 12.9536
Au 37.0032 16.6551 30.4553
Au 37.0107 47.1238 14.6121
Au 37.0153 77.0088 37.8428
Au 37.0163 22.2156 0.3724
Au 37.0247 79.8118 31.3595
Au 37.0319 2.9163 18.6567
Au 37.0339 6.4551 35.0033
Au 37.0385 25.9411 2.0308
Au 37.0463 69.4135 37.1242
Au 37.0541 6.6418 20.3151
Au 37.0558 72.2165 30.6409
Au 37.0607 29.6665 3.6893
Au 37.0652 75.0195 24.1575
Au 37.0702 14.7775 32.6428
Au 37.0747 77.8225 17.6742
Au 37.0762 10.3672 21.9735
Au 37.0773 61.8183 36.4056
Au 37.0829 33.3920 5.3477
Au 37.0868 64.6213 29.9222
Au 37.0963 67.4242 23.4389
Au 37.0984 14.0927 23.6320
Au 37.1009 4.5774 37.1907
Au 37.1051 37.1175 7.0062
Au 37.1057 70.2272 16.9556
Au 37.1065 23.0999 30.2823
Au 37.1083 54.2230 35.6869
Au 37.1152 73.0302 10.4723
Au 37.1178 57.0260 29.2036
Au 37.1206 17.8182 25.2904
Au 37.1247 75.8332 3.9890
Au 37.1273 59.8290 22.7203
Au 37.1273 40.8430 8.6646
Au 37.1368 62.6320 16.2370
Au 37.1372 12.8998 34.8303
Au 37.1394 46.6277 34.9683
Au 37.1428 21.5436 26.9489
Au 37.1462 65.4350 9.7537
Au 37.1488 49.4307 28.4850
Au 37.1495 44.5684 10.3230
Au 37.1557 68.2380 3.2703
Au 37.1583 52.2337 22.0017
Au 37.1650 25.2691 28.6073
Au 37.1678 55.0367 15.5184
Au 37.1679 2.6998 39.3782
Au 37.1707 0.3609 14.3676
Au 37.1717 48.2939 11.9815
Au 37.1735 21.2222 32.4698
Au 37.1773 57.8397 9.0350
Au 37.1867 60.6427 2.5517
Au 37.1929 4.0864 16.0261
Au 37.2042 11.0222 37.0177
Au 37.2098 29.5446 30.1093
Au 37.2151 7.8118 17.6845
Au 37.2217 30.8366 1.0587
Au 37.2372 11.5373 19.3430
Au 37.2404 19.3445 34.6572
Au 37.2439 34.5621 2.7171
Au 37.2594 15.2628 21.0014
Au 37.2661 38.2876 4.3756
Au 37.2711 9.1445 39.2052
Au 37.2767 27.6669 32.2968
Au 37.2816 18.9883 22.6598
Au 37.2883 42.0130 6.0340
Au 37.3038 22.7137 24.3183
Au 37.3074 17.4669 36.8447
Au 37.3105 45.7385 7.6924
Au 37.3130 35.9893 29.9363
Au 37.3260 26.4392 25.9767
Au 37.3317 1.5310 11.7370
Au 37.3327 49.4640 9.3509
Au 37.3437 25.7893 34.4842
Au 37.3482 30.1647 27.6352
Au 37.3539 5.2565 13.3955
Au 37.3595 74.3807 36.7071
Au 37.3690 77.1837 30.2238
Au 37.3744 15.5892 39.0321
Au 37.3761 8.9819 15.0539
Au 37.3785 79.9867 23.7405
Au 37.3800 34.1117 32.1237
Au 37.3905 66.7855 35.9885
Au 37.3983 12.7074 16.7124
Au 37.4000 69.5884 29.5052
Au 37.4049 35.7322 0.0865
Au 37.4095 72.3914 23.0218
Au 37.4107 23.9116 36.6717
Au 37.4163 42.4341 29.7632
Au 37.4190 75.1944 16.5385
Au 37.4204 16.4329 18.3708
Au 37.4216 59.1902 35.2698
Au 37.4271 39.4577 1.7450
Au 37.4284 77.9974 10.0552
Au 37.4311 61.9932 28.7865
Au 37.4405 64.7962 22.3032
Au 37.4426 20.1583 20.0293
Au 37.4469 32.2340 34.3112
Au 37.4493 43.1831 3.4034
Au 37.4500 67.5992 15.8199
Au 37.4526 51.5949 34.5512
Au 37.4595 70.4022 9.3366
Au 37.4621 54.3979 28.0679
Au 37.4648 23.8838 21.6877
Au 37.4690 73.2052 2.8533
Au 37.4715 46.9086 5.0619
Au 37.4716 57.2009 21.5846
Au 37.4776 22.0340 38.8591
Au 37.4810 60.0039 15.1013
Au 37.4832 40.5564 31.9507
Au 37.4870 27.6093 23.3461
Au 37.4905 62.8069 8.6180
Au 37.4927 2.7011 9.1064
Au 37.4931 46.8027 27.3493
Au 37.4937 50.6341 6.7203
Au 37.5000 65.6099 2.1346
Au 37.5026 49.6057 20.8660
Au 37.5092 31.3348 25.0046
Au 37.5121 52.4087 14.3826
Au 37.5139 30.3564 36.4986
Au 37.5149 6.4265 10.7649
Au 37.5215 55.2117 7.8993
Au 37.5310 58.0147 1.4160
Au 37.5314 35.0602 26.6630
Au 37.5371 10.1520 12.4233
Au 37.5502 38.6788 34.1382
Au 37.5536 38.7857 28.3215
Au 37.5593 13.8775 14.0818
Au 37.5809 28.4787 38.6861
Au 37.5814 17.6030 15.7402
Au 37.6036 21.3284 17.3987
Au 37.6103 44.3532 0.7728
Au 37.6172 36.8011 36.3256
Au 37.6258 25.0539 19.0571
Au 37.6315 0.1457 4.8174
Au 37.6325 48.0787 2.4313
Au 37.6480 28.7794 20.7155
Au 37.6537 3.8712 6.4758
Au 37.6547 51.8042 4.0897
Au 37.6702 32.5049 22.3740
Au 37.6728 79.3479 36.2900
Au 37.6759 7.5966 8.1343
Au 37.6841 34.9234 38.5131
Au 37.6924 36.2303 24.0324
Au 37.6981 11.3221 9.7927
Au 37.7038 71.7527 35.5714
Au 37.7133 74.5556 29.0881
Au 37.7146 39.9558 25.6909
Au 37.7203 15.0476 11.4512
Au 37.7204 43.2458 36.1526
Au 37.7227 77.3586 22.6048
Au 37.7348 64.1574 34.8528
Au 37.7368 43.6813 27.3493
Au 37.7424 18.7730 13.1096
Au 37.7443 66.9604 28.3694
Au 37.7538 69.7634 21.8861
Au 37.7632 72.5664 15.4028
Au 37.7646 22.4985 14.7681
Au 37.7658 56.5621 34.1341
Au 37.7727 75.3694 8.9195
Au 37.7753 59.3651 27.6508
Au 37.7822 78.1724 2.4362
Au 37.7848 62.1681 21.1675
Au 37.7868 26.2240 16.4265
Au 37.7874 41.3682 38.3400
Au 37.7874 46.1639 39.8988
Au 37.7925 1.3158 2.1868
Au 37.7943 64.9711 14.6842
Au 37.7969 48.9669 33.4155
Au 37.8037 67.7741 8.2009
Au 37.8063 51.7699 26.9322
Au 37.8090 29.9495 18.0850
Au 37.8132 70.5771 1.7176
Au 37.8147 5.0412 3.8452
Au 37.8157 52.9742 1.4591
Au 37.8158 54.5729 20.4489
Au 37.8253 57.3759 13.9656
Au 37.8312 33.6749 19.7434
Au 37.8348 60.1789 7.4822
Au 37.8369 8.7667 5.5037
Au 37.8442 62.9819 0.9989
Au 37.8534 37.4004 21.4018
Au 37.8591 12.4922 7.1621
Au 37.8753 55.3866 0.2803
Au 37.8756 41.1259 23.0603
Au 37.8813 16.2177 8.8206
Au 37.8978 44.8514 24.7187
Au 37.9035 19.9431 10.4790
Au 37.9190 0.6438 28.7633
Au 37.9256 23.6686 12.1375
Au 37.9478 27.3941 13.7959
Au 37.9700 31.1195 15.4544
Au 37.9757 6.2113 1.2147
Au 37.9922 34.8450 17.1128
Au 37.9979 9.9368 2.8731
Au 38.0144 38.5705 18.7713
Au 38.0170 76.7198 35.1543
Au 38.0201 13.6623 4.5315
Au 38.0265 79.5228 28.6710
Au 38.0366 42.2960 20.4297
Au 38.0423 17.3877 6.1900
Au 38.0480 69.1246 34.4357
Au 38.0575 71.9276 27.9524
Au 38.0588 46.0214 22.0881
Au 38.0645 21.1132 7.8484
Au 38.0670 74.7306 21.4690
Au 38.0765 77.5336 14.9857
Au 38.0791 61.5293 33.7171
Au 38.0800 1.8139 26.1327
Au 38.0840 6.3325 31.0647
Au 38.0866 24.8387 9.5069
Au 38.0885 64.3323 27.2337
Au 38.0980 67.1353 20.7504
Au 38.1006 51.1311 39.4817
Au 38.1075 69.9383 14.2671
Au 38.1088 28.5642 11.1653
Au 38.1101 53.9341 32.9984
Au 38.1170 72.7413 7.7838
Au 38.1196 56.7371 26.5151
Au 38.1264 75.5443 1.3005
Au 38.1290 59.5401 20.0318
Au 38.1310 32.2896 12.8238
Au 38.1385 62.3431 13.5485
Au 38.1411 46.3388 32.2798
Au 38.1480 65.1461 7.0652
Au 38.1506 49.1418 25.7965
Au 38.1509 4.4549 33.2522
Au 38.1532 36.0151 14.4822
Au 38.1575 67.9491 0.5818
Au 38.1589 11.1069 0.2425
Au 38.1601 51.9448 19.3132
Au 38.1696 54.7478 12.8299
Au 38.1754 39.7406 16.1407
Au 38.1790 57.5508 6.3465
Au 38.1811 14.8324 1.9009
Au 38.1872 12.7772 30.8917
Au 38.1976 43.4661 17.7991
Au 38.2033 18.5578 3.5594
Au 38.2179 2.5772 35.4396
Au 38.2198 47.1915 19.4576
Au 38.2255 22.2833 5.2178
Au 38.2410 2.9840 23.5021
Au 38.2477 26.0088 6.8763
Au 38.2542 10.8996 33.0791
Au 38.2632 6.7095 25.1606
Au 38.2698 29.7342 8.5347
Au 38.2849 0.6995 37.6271
Au 38.2854 10.4349 26.8190
Au 38.2905 19.2220 30.7186
Au 38.2920 33.4597 10.1932
Au 38.3075 14.1604 28.4775
Au 38.3142 37.1852 11.8516
Au 38.3212 9.0219 35.2666
Au 38.3364 40.9107 13.5101
Au 38.3574 17.3443 32.9061
Au 38.3586 44.6361 15.1685
Au 38.3613 74.0918 34.0186
Au 38.3643 19.7279 0.9288
Au 38.3707 76.8948 27.5353
Au 38.3798 0.4286 19.2131
Au 38.3802 79.6978 21.0520
Au 38.3808 48.3616 16.8270
Au 38.3828 63.6935 39.7833
Au 38.3865 23.4534 2.5872
Au 38.3881 7.1443 37.4540
Au 38.3923 66.4965 33.3000
Au 38.3937 25.6667 30.5456
Au 38.4018 69.2995 26.8167
Au 38.4020 4.1541 20.8715
Au 38.4087 27.1789 4.2457
Au 38.4113 72.1025 20.3333
Au 38.4139 56.0983 39.0647
Au 38.4207 74.9055 13.8500
Au 38.4233 58.9013 32.5813
Au 38.4242 7.8796 22.5300
Au 38.4244 15.4667 35.0936
Au 38.4302 77.7085 7.3667
Au 38.4308 30.9043 5.9041
Au 38.4328 61.7043 26.0980
Au 38.4423 64.5073 19.6147
Au 38.4449 48.5030 38.3460
Au 38.4464 11.6050 24.1884
Au 38.4518 67.3103 13.1314
Au 38.4530 34.6298 7.5626
Au 38.4544 51.3060 31.8627
Au 38.4551 5.2666 39.6415
Au 38.4607 23.7891 32.7331
Au 38.4612 70.1133 6.6481
Au 38.4638 54.1090 25.3794
Au 38.4686 15.3305 25.8469
Au 38.4707 72.9163 0.1648
Au 38.4733 56.9120 18.8961
Au 38.4752 38.3553 9.2210
Au 38.4828 59.7150 12.4128
Au 38.4907 19.0560 27.5053
Au 38.4914 13.5890 37.2810
Au 38.4923 62.5180 5.9295
Au 38.4970 32.1115 30.3726
Au 38.4974 42.0808 10.8795
Au 38.5129 22.7814 29.1638
Au 38.5138 52.1198 11.6941
Au 38.5196 45.8062 12.5379
Au 38.5233 54.9227 5.2108
Au 38.5277 21.9114 34.9205
Au 38.5408 1.5987 16.5825
Au 38.5418 49.5317 14.1964
Au 38.5583 11.7114 39.4685
Au 38.5630 5.3242 18.2409
Au 38.5639 30.2338 32.5600
Au 38.5697 28.3489 1.6151
Au 38.5852 9.0496 19.8994
Au 38.5918 32.0744 3.2735
Au 38.5946 20.0338 37.1080
Au 38.6002 38.5562 30.1996
Au 38.6074 12.7751 21.5578
Au 38.6140 35.7999 4.9320
Au 38.6296 16.5006 23.2163
Au 38.6309 28.3561 34.7475
Au 38.6362 39.5254 6.5904
Au 38.6517 20.2261 24.8747
Au 38.6584 43.2508 8.2489
Au 38.6616 18.1561 39.2954
Au 38.6672 36.6785 32.3870
Au 38.6739 23.9515 26.5332
Au 38.6745 79.0590 33.6015
Au 38.6806 46.9763 9.9073
Au 38.6961 68.6607 39.3662
Au 38.6961 27.6770 28.1916
Au 38.6979 26.4785 36.9350
Au 38.7018 2.7688 13.9519
Au 38.7055 71.4637 32.8829
Au 38.7150 74.2667 26.3996
Au 38.7240 6.4943 15.6103
Au 38.7245 77.0697 19.9163
Au 38.7271 61.0655 38.6476
Au 38.7340 79.8727 13.4329
Au 38.7342 34.8009 34.5745
Au 38.7366 63.8685 32.1643
Au 38.7460 66.6715 25.6809
Au 38.7462 10.2197 17.2688
Au 38.7529 33.2445 0.6430
Au 38.7555 69.4745 19.1976
Au 38.7581 53.4702 37.9289
Au 38.7648 24.6008 39.1224
Au 38.7650 72.2775 12.7143
Au 38.7676 56.2732 31.4456
Au 38.7684 13.9452 18.9272
Au 38.7704 43.1233 32.2140
Au 38.7745 75.0805 6.2310
Au 38.7750 36.9700 2.3014
Au 38.7771 59.0762 24.9623
Au 38.7865 61.8792 18.4790
Au 38.7891 45.8750 37.2103
Au 38.7906 17.6707 20.5857
Au 38.7960 64.6822 11.9957
Au 38.7972 40.6954 3.9598
Au 38.7986 48.6780 30.7270
Au 38.8011 32.9232 36.7619
Au 38.8055 67.4852 5.5124
Au 38.8081 51.4810 24.2437
Au 38.8128 21.3961 22.2441
Au 38.8176 54.2840 17.7604
Au 38.8194 44.4209 5.6183
Au 38.8270 57.0869 11.2771
Au 38.8349 25.1216 23.9026
Au 38.8365 59.8899 4.7937
Au 38.8374 41.2456 34.4015
Au 38.8406 0.2134 9.6629
Au 38.8416 48.1464 7.2767
Au 38.8571 28.8471 25.5610
Au 38.8628 3.9389 11.3213
Au 38.8681 31.0456 38.9494
Au 38.8793 32.5726 27.2195
Au 38.8850 7.6643 12.9798
Au 38.9015 36.2980 28.8779
Au 38.9044 39.3680 36.5889
Au 38.9072 11.3898 14.6382
Au 38.9294 15.1153 16.2966
Au 38.9516 18.8408 17.9551
Au 38.9582 41.8655 1.3292
Au 38.9714 37.4903 38.7764
Au 38.9738 22.5662 19.6135
Au 38.9804 45.5910 2.9877
Au 38.9959 26.2917 21.2720
Au 39.0016 1.3835 7.0323
Au 39.0026 49.3165 4.6461
Au 39.0093 73.6279 38.9491
Au 39.0181 30.0172 22.9304
Au 39.0188 76.4309 32.4658
Au 39.0238 5.1089 8.6907
Au 39.0282 79.2339 25.9825
Au 39.0403 66.0327 38.2305
Au 39.0403 33.7426 24.5889
Au 39.0460 8.8344 10.3492
Au 39.0498 68.8357 31.7472
Au 39.0593 71.6387 25.2639
Au 39.0625 37.4681 26.2473
Au 39.0682 12.5599 12.0076
Au 39.0687 74.4417 18.7805
Au 39.0713 58.4374 37.5119
Au 39.0746 43.9350 38.6033
Au 39.0782 77.2447 12.2972
Au 39.0808 61.2404 31.0285
Au 39.0847 41.1936 27.9058
Au 39.0903 64.0434 24.5452
Au 39.0904 16.2854 13.6661
Au 39.0998 66.8464 18.0619
Au 39.1024 50.8422 36.7932
Au 39.1092 69.6494 11.5786
Au 39.1118 53.6452 30.3099
Au 39.1126 20.0108 15.3245
Au 39.1187 72.4524 5.0953
Au 39.1213 56.4482 23.8266
Au 39.1308 59.2512 17.3433
Au 39.1348 23.7363 16.9829
Au 39.1403 62.0541 10.8600
Au 39.1414 46.7611 0.3571
Au 39.1429 46.0499 29.5913
Au 39.1498 64.8571 4.3767
Au 39.1524 48.8529 23.1080
Au 39.1569 27.4618 18.6414
Au 39.1618 51.6559 16.6247
Au 39.1626 2.5536 4.4017
Au 39.1636 50.4866 2.0155
Au 39.1713 54.4589 10.1413
Au 39.1791 31.1873 20.2998
Au 39.1808 57.2619 3.6580
Au 39.1848 6.2790 6.0601
Au 39.2013 34.9127 21.9583
Au 39.2070 10.0045 7.7186
Au 39.2235 38.6382 23.6167
Au 39.2292 13.7300 9.3770
Au 39.2457 42.3637 25.2752
Au 39.2514 17.4555 11.0355
Au 39.2679 2.4546 31.5010
Au 39.2736 21.1809 12.6939
Au 39.2958 24.9064 14.3523
Au 39.3180 28.6319 16.0108
Au 39.3225 78.5951 38.5320
Au 39.3236 3.7236 1.7711
Au 39.3349 0.5770 33.6885
Au 39.3401 32.3573 17.6692
Au 39.3458 7.4491 3.4295
Au 39.3535 70.9999 37.8134
Au 39.3623 36.0828 19.3277
Au 39.3630 73.8029 31.3301
Au 39.3680 11.1746 5.0880
Au 39.3712 8.8994 31.3280
Au 39.3725 76.6059 24.8468
Au 39.3820 79.4089 18.3635
Au 39.3845 39.8083 20.9861
Au 39.3846 63.4046 37.0948
Au 39.3902 14.9001 6.7464
Au 39.3941 66.2076 30.6115
Au 39.4035 69.0106 24.1281
Au 39.4067 43.5338 22.6446
Au 39.4124 18.6255 8.4049
Au 39.4130 71.8136 17.6448
Au 39.4156 55.8094 36.3762
Au 39.4225 74.6166 11.1615
Au 39.4251 58.6124 29.8928
Au 39.4320 77.4196 4.6782
Au 39.4346 61.4154 23.4095
Au 39.4346 22.3510 10.0633
Au 39.4382 7.0217 33.5155
Au 39.4440 64.2184 16.9262
Au 39.4466 48.2141 35.6575
Au 39.4501 3.0517 28.3476
Au 39.4535 67.0213 10.4429
Au 39.4561 51.0171 29.1742
Au 39.4568 26.0765 11.7218
Au 39.4630 69.8243 3.9596
Au 39.4656 53.8201 22.6909
Au 39.4723 6.7772 30.0060
Au 39.4744 15.3441 31.1550
Au 39.4751 56.6231 16.2076
Au 39.4790 29.8020 13.3802
Au 39.4845 59.4261 9.7243
Au 39.4940 62.2291 3.2409
Au 39.5011 33.5274 15.0386
Au 39.5051 5.1441 35.7029
Au 39.5068 8.6192 0.7989
Au 39.5156 51.8308 9.0056
Au 39.5233 37.2529 16.6971
Au 39.5250 54.6338 2.5223
Au 39.5290 12.3447 2.4574
Au 39.5414 13.4665 33.3424
Au 39.5455 40.9784 18.3555
Au 39.5512 16.0702 4.1158
Au 39.5677 44.7039 20.0140
Au 39.5721 3.2664 37.8904
Au 39.5734 19.7956 5.7743
Au 39.5777 21.7888 30.9819
Au 39.5889 0.4963 24.0586
Au 39.5956 23.5211 7.4327
Au 39.6084 11.5888 35.5299
Au 39.6111 4.2218 25.7170
Au 39.6178 27.2466 9.0912
Au 39.6333 7.9473 27.3754
Au 39.6400 30.9720 10.7496
Au 39.6447 19.9112 33.1694
Au 39.6555 11.6727 29.0339
Au 39.6621 34.6975 12.4081
Au 39.6668 75.9671 37.3963
Au 39.6753 9.7111 37.7173
Au 39.6763 78.7701 30.9130
Au 39.6843 38.4230 14.0665
Au 39.6978 68.3718 36.6777
Au 39.7065 42.1485 15.7249
Au 39.7073 71.1748 30.1944
Au 39.7116 18.0335 35.3569
Au 39.7122 17.2402 1.4852
Au 39.7168 73.9778 23.7111
Au 39.7262 76.7808 17.2277
Au 39.7287 45.8739 17.3834
Au 39.7288 60.7766 35.9591
Au 39.7344 20.9657 3.1437
Au 39.7357 79.5838 10.7444
Au 39.7383 63.5796 29.4758
Au 39.7423 7.8335 39.9048
Au 39.7478 66.3826 22.9924
Au 39.7479 26.3559 32.9964
Au 39.7499 1.6664 21.4280
Au 39.7566 24.6912 4.8021
Au 39.7573 69.1855 16.5091
Au 39.7599 53.1813 35.2404
Au 39.7667 71.9885 10.0258
Au 39.7693 55.9843 28.7571
Au 39.7721 5.3919 23.0864
Au 39.7762 74.7915 3.5425
Au 39.7786 16.1559 37.5443
Au 39.7788 28.4167 6.4606
Au 39.7788 58.7873 22.2738
Au 39.7883 61.5903 15.7905
Au 39.7909 45.5861 34.5218
Au 39.7943 9.1174 24.7449
Au 39.7978 64.3933 9.3072
Au 39.8004 48.3890 28.0385
Au 39.8010 32.1421 8.1190
Au 39.8072 67.1963 2.8239
Au 39.8098 51.1920 21.5552
Au 39.8149 24.4783 35.1838
Au 39.8165 12.8428 26.4033
Au 39.8193 53.9950 15.0719
Au 39.8232 35.8676 9.7775
Au 39.8288 56.7980 8.5886
Au 39.8383 59.6010 2.1052
Au 39.8387 16.5683 28.0617
Au 39.8453 39.5931 11.4359
Au 39.8456 14.2782 39.7318
Au 39.8512 32.8007 32.8233
Au 39.8609 20.2938 29.7202
Au 39.8675 43.3185 13.0944
Au 39.8819 22.6006 37.3713
Au 39.8897 47.0440 14.7528
Au 39.8954 22.1358 0.5131
Au 39.9109 2.8365 18.7974
Au 39.9176 25.8613 2.1715
Au 39.9181 30.9230 35.0108
Au 39.9331 6.5620 20.4558
Au 39.9398 29.5867 3.8300
Au 39.9488 20.7230 39.5587
Au 39.9544 39.2454 32.6503
Au 39.9553 10.2874 22.1143
Au 39.9620 33.3122 5.4884
Au 39.9775 14.0129 23.7727
Au 39.9842 37.0377 7.1469
Au 39.9851 29.0453 37.1983
Au 39.9997 17.7384 25.4312
Au 40.0063 40.7632 8.8053
Au 40.0110 73.3390 36.2606
Au 40.0205 76.1420 29.7773
Au 40.0214 37.3677 34.8378
Au 40.0219 21.4639 27.0896
Au 40.0285 44.4886 10.4638
Au 40.0300 78.9450 23.2940
Au 40.0421 65.7438 35.5420
Au 40.0441 25.1893 28.7480
Au 40.0497 0.2811 14.5083
Au 40.0507 48.2141 12.1222
Au 40.0515 68.5468 29.0587
Au 40.0521 27.1677 39.3857
Au 40.0610 71.3498 22.5754
Au 40.0662 28.9148 30.4065
Au 40.0705 74.1527 16.0920
Au 40.0719 4.0066 16.1668
Au 40.0731 58.1485 34.8234
Au 40.0800 76.9557 9.6087
Au 40.0826 60.9515 28.3400
Au 40.0884 35.4901 37.0252
Au 40.0894 79.7587 3.1254
Au 40.0920 63.7545 21.8567
Au 40.0941 7.7320 17.8252
Au 40.1008 30.7568 1.1994
Au 40.1015 66.5575 15.3734
Au 40.1041 50.5533 34.1047
Au 40.1110 69.3605 8.8901
Au 40.1136 53.3562 27.6214
Au 40.1163 11.4575 19.4837
Au 40.1205 72.1635 2.4068
Au 40.1230 34.4823 2.8578
Au 40.1231 56.1592 21.1381
Au 40.1326 58.9622 14.6548
Au 40.1385 15.1830 21.1421
Au 40.1420 61.7652 8.1715
Au 40.1446 45.7610 26.9028
Au 40.1452 38.2078 4.5163
Au 40.1515 64.5682 1.6882
Au 40.1541 48.5640 20.4195
Au 40.1553 33.6124 39.2127
Au 40.1607 18.9085 22.8006
Au 40.1636 51.3670 13.9362
Au 40.1674 41.9332 6.1747
Au 40.1731 54.1700 7.4528
Au 40.1825 56.9730 0.9695
Au 40.1829 22.6339 24.4590
Au 40.1895 45.6587 7.8332
Au 40.1916 41.9348 36.8522
Au 40.2051 26.3594 26.1175
Au 40.2107 1.4512 11.8777
Au 40.2117 49.3842 9.4916
Au 40.2272 30.0849 27.7759
Au 40.2329 5.1767 13.5362
Au 40.2494 33.8104 29.4343
Au 40.2551 8.9021 15.1946
Au 40.2586 40.0572 39.0397
Au 40.2716 37.5358 31.0928
Au 40.2773 12.6276 16.8531
Au 40.2840 35.6524 0.2272
Au 40.2995 16.3531 18.5115
Au 40.3062 39.3779 1.8857
Au 40.3217 20.0786 20.1700
Au 40.3243 78.3062 35.8435
Au 40.3284 43.1033 3.5441
Au 40.3439 23.8040 21.8284
Au 40.3505 46.8288 5.2026
Au 40.3553 70.7110 35.1249
Au 40.3648 73.5140 28.6416
Au 40.3661 27.5295 23.4869
Au 40.3717 2.6213 9.2471
Au 40.3727 50.5543 6.8610
Au 40.3743 76.3169 22.1583
Au 40.3837 79.1199 15.6750
Au 40.3863 63.1157 34.4063
Au 40.3883 31.2550 25.1453
Au 40.3939 6.3467 10.9056
Au 40.3958 65.9187 27.9230
Au 40.4053 68.7217 21.4396
Au 40.4104 34.9804 26.8038
Au 40.4148 71.5247 14.9563
Au 40.4161 10.0722 12.5640
Au 40.4174 55.5204 33.6876
Au 40.4242 74.3277 8.4730
Au 40.4268 58.3234 27.2043
Au 40.4326 38.7059 28.4622
Au 40.4337 77.1307 1.9897
Au 40.4363 61.1264 20.7210
Au 40.4383 13.7977 14.2225
Au 40.4389 45.1222 39.4523
Au 40.4458 63.9294 14.2377
Au 40.4484 47.9252 32.9690
Au 40.4548 42.4314 30.1206
Au 40.4553 66.7324 7.7544
Au 40.4579 50.7282 26.4857
Au 40.4605 17.5232 15.8809
Au 40.4647 69.5354 1.2711
Au 40.4673 53.5312 20.0024
Au 40.4768 56.3342 13.5191
Au 40.4827 21.2486 17.5394
Au 40.4863 59.1372 7.0358
Au 40.4894 44.2734 0.9135
Au 40.4958 61.9402 0.5524
Au 40.5049 24.9741 19.1978
Au 40.5105 0.0659 4.9581
Au 40.5115 47.9989 2.5720
Au 40.5271 28.6996 20.8563
Au 40.5327 3.7914 6.6166
Au 40.5337 51.7244 4.2304
Au 40.5493 32.4251 22.5147
Au 40.5549 7.5168 8.2750
Au 40.5552 5.0215 31.7643
Au 40.5714 36.1505 24.1732
Au 40.5771 11.2423 9.9334
Au 40.5936 39.8760 25.8316
Au 40.5993 14.9678 11.5919
Au 40.6158 43.6015 27.4900
Au 40.6215 18.6933 13.2503
Au 40.6221 3.1438 33.9518
Au 40.6437 22.4187 14.9088
Au 40.6659 26.1442 16.5672
Au 40.6685 75.6782 34.7078
Au 40.6715 1.2360 2.3275
Au 40.6780 78.4812 28.2245
Au 40.6881 29.8697 18.2257
Au 40.6891 1.2662 36.1392
Au 40.6937 4.9614 3.9860
Au 40.6947 52.8944 1.5998
Au 40.6996 68.0829 33.9892
Au 40.7090 70.8859 27.5059
Au 40.7103 33.5951 19.8841
Au 40.7159 8.6869 5.6444
Au 40.7185 73.6889 21.0226
Au 40.7211 57.6847 39.7539
Au 40.7254 9.5886 33.7787
Au 40.7280 76.4919 14.5392
Au 40.7306 60.4876 33.2706
Au 40.7325 37.3206 21.5426
Au 40.7375 79.2949 8.0559
Au 40.7381 12.4124 7.3029
Au 40.7401 63.2906 26.7872
Au 40.7495 66.0936 20.3039
Au 40.7521 50.0894 39.0353
Au 40.7546 41.0461 23.2010
Au 40.7590 68.8966 13.8206
Au 40.7603 16.1379 8.9613
Au 40.7616 52.8924 32.5519
Au 40.7685 71.6996 7.3373
Au 40.7711 55.6954 26.0686
Au 40.7768 44.7716 24.8595
Au 40.7780 74.5026 0.8540
Au 40.7806 58.4984 19.5853
Au 40.7825 19.8633 10.6197
Au 40.7900 61.3014 13.1020
Au 40.7923 7.7109 35.9662
Au 40.7926 45.2971 31.8333
Au 40.7980 0.5640 28.9040
Au 40.7995 64.1044 6.6187
Au 40.8021 48.1001 25.3500
Au 40.8047 23.5888 12.2782
Au 40.8090 66.9074 0.1354
Au 40.8116 50.9031 18.8667
Au 40.8211 53.7061 12.3834
Au 40.8269 27.3143 13.9366
Au 40.8286 16.0333 33.6057
Au 40.8305 56.5091 5.9000
Au 40.8491 31.0398 15.5951
Au 40.8547 6.1315 1.3554
Au 40.8593 5.8333 38.1537
Au 40.8713 34.7652 17.2535
Au 40.8769 9.8570 3.0138
Au 40.8935 38.4907 18.9120
Au 40.8956 14.1557 35.7932
Au 40.8991 13.5825 4.6723
Au 40.9156 42.2162 20.5704
Au 40.9213 17.3079 6.3307
Au 40.9319 22.4780 33.4327
Au 40.9378 45.9416 22.2289
Au 40.9435 21.0334 7.9892
Au 40.9590 1.7341 26.2734
Au 40.9626 12.2780 37.9806
Au 40.9657 24.7589 9.6476
Au 40.9812 5.4596 27.9319
Au 40.9879 28.4844 11.3060
Au 40.9989 20.6004 35.6202
Au 41.0034 9.1851 29.5903
Au 41.0101 32.2098 12.9645
Au 41.0128 73.0501 33.5721
Au 41.0223 75.8531 27.0888
Au 41.0256 12.9105 31.2488
Au 41.0317 78.6561 20.6055
Au 41.0323 35.9353 14.6229
Au 41.0343 62.6519 39.3368
Au 41.0351 28.9228 33.2597
Au 41.0379 11.0271 0.3832
Au 41.0438 65.4548 32.8535
Au 41.0533 68.2578 26.3702
Au 41.0545 39.6608 16.2814
Au 41.0601 14.7526 2.0417
Au 41.0628 71.0608 19.8868
Au 41.0654 55.0566 38.6182
Au 41.0658 18.7227 37.8076
Au 41.0722 73.8638 13.4035
Au 41.0748 57.8596 32.1349
Au 41.0766 43.3863 17.9398
Au 41.0817 76.6668 6.9202
Au 41.0823 18.4780 3.7001
Au 41.0843 60.6626 25.6515
Au 41.0912 79.4698 0.4369
Au 41.0938 63.4656 19.1682
Au 41.0964 47.4613 37.8995
Au 41.0988 47.1117 19.5983
Au 41.1021 27.0451 35.4471
Au 41.1033 66.2686 12.6849
Au 41.1045 22.2035 5.3586
Au 41.1059 50.2643 31.4162
Au 41.1128 69.0716 6.2016
Au 41.1154 53.0673 24.9329
Au 41.1200 2.9042 23.6428
Au 41.1248 55.8703 18.4496
Au 41.1267 25.9290 7.0170
Au 41.1328 16.8451 39.9951
Au 41.1343 58.6733 11.9663
Au 41.1384 35.3675 33.0866
Au 41.1422 6.6297 25.3013
Au 41.1438 61.4763 5.4830
Au 41.1489 29.6545 8.6754
Au 41.1559 48.2751 17.7310
Au 41.1644 10.3551 26.9597
Au 41.1653 51.0781 11.2477
Au 41.1691 25.1675 37.6346
Au 41.1711 33.3799 10.3339
Au 41.1748 53.8811 4.7643
Au 41.1866 14.0806 28.6182
Au 41.1933 37.1054 11.9923
Au 41.2054 33.4899 35.2741
Au 41.2088 17.8061 30.2766
Au 41.2155 40.8309 13.6508
Au 41.2360 23.2898 39.8220
Au 41.2377 44.5563 15.3092
Au 41.2416 41.8123 32.9136
Au 41.2433 19.6481 1.0695
Au 41.2588 0.3488 19.3538
Au 41.2655 23.3736 2.7280
Au 41.2723 31.6122 37.4616
Au 41.2810 4.0743 21.0123
Au 41.2877 27.0991 4.3864
Au 41.3032 7.7998 22.6707
Au 41.3086 39.9346 35.1011
Au 41.3099 30.8245 6.0449
Au 41.3165 75.2143 39.6383
Au 41.3254 11.5252 24.3291
Au 41.3260 78.0173 33.1550
Au 41.3321 34.5500 7.7033
Au 41.3393 29.7346 39.6490
Au 41.3476 67.6190 38.9197
Au 41.3476 15.2507 25.9876
Au 41.3543 38.2755 9.3617
Au 41.3571 70.4220 32.4364
Au 41.3665 73.2250 25.9531
Au 41.3698 18.9762 27.6460
Au 41.3756 38.0569 37.2885
Au 41.3760 76.0280 19.4698
Au 41.3765 42.0010 11.0202
Au 41.3786 60.0238 38.2011
Au 41.3855 78.8310 12.9864
Au 41.3881 62.8268 31.7178
Au 41.3920 22.7017 29.3045
Au 41.3976 65.6298 25.2345
Au 41.3987 45.7264 12.6786
Au 41.4070 68.4328 18.7511
Au 41.4096 52.4285 37.4825
Au 41.4142 26.4271 30.9629
Au 41.4165 71.2358 12.2678
Au 41.4191 55.2315 30.9991
Au 41.4198 1.5189 16.7232
Au 41.4260 74.0388 5.7845
Au 41.4265 24.5437 0.0974
Au 41.4286 58.0345 24.5158
Au 41.4381 60.8375 18.0325
Au 41.4407 44.8333 36.7638
Au 41.4420 5.2444 18.3817
Au 41.4425 36.1793 39.4760
Au 41.4475 63.6405 11.5492
Au 41.4487 28.2692 1.7558
Au 41.4501 47.6363 30.2805
Au 41.4570 66.4435 5.0659
Au 41.4596 50.4393 23.7972
Au 41.4642 8.9698 20.0401
Au 41.4691 53.2423 17.3139
Au 41.4709 31.9946 3.4143
Au 41.4786 56.0453 10.8306
Au 41.4864 12.6953 21.6985
Au 41.4880 58.8483 4.3473
Au 41.4931 35.7201 5.0727
Au 41.5086 16.4208 23.3570
Au 41.5153 39.4456 6.7312
Au 41.5308 20.1463 25.0154
Au 41.5375 43.1710 8.3896
Au 41.5458 42.6240 39.3030
Au 41.5530 23.8717 26.6739
Au 41.5597 46.8965 10.0480
Au 41.5752 27.5972 28.3323
Au 41.5808 2.6890 14.0926
Au 41.5974 31.3227 29.9908
Au 41.6030 6.4145 15.7511
Au 41.6252 10.1399 17.4095
Au 41.6319 33.1647 0.7837
Au 41.6474 13.8654 19.0680
Au 41.6541 36.8902 2.4421
Au 41.6608 72.5862 38.5026
Au 41.6696 17.5909 20.7264
Au 41.6703 75.3892 32.0193
Au 41.6763 40.6157 4.1006
Au 41.6798 78.1922 25.5360
Au 41.6918 21.3164 22.3848
Au 41.6918 64.9910 37.7840
Au 41.6985 44.3411 5.7590
Au 41.7013 67.7940 31.3007
Au 41.7108 70.5970 24.8174
Au 41.7140 25.0418 24.0433
Au 41.7196 0.1336 9.8036
Au 41.7203 73.4000 18.3341
Au 41.7207 48.0666 7.4175
Au 41.7229 57.3957 37.0654
Au 41.7297 76.2030 11.8507
Au 41.7323 60.1987 30.5821
Au 41.7362 28.7673 25.7017
Au 41.7392 79.0060 5.3674
Au 41.7418 63.0017 24.0987
Au 41.7418 3.8591 11.4620
Au 41.7513 65.8047 17.6154
Au 41.7539 49.8005 36.3467
Au 41.7584 32.4928 27.3602
Au 41.7608 68.6077 11.1321
Au 41.7634 52.6035 29.8634
Au 41.7640 7.5845 13.1205
Au 41.7702 71.4107 4.6488
Au 41.7728 55.4065 23.3801
Au 41.7806 36.2182 29.0186
Au 41.7823 58.2095 16.8968
Au 41.7862 11.3100 14.7789
Au 41.7918 61.0125 10.4135
Au 41.7944 45.0082 29.1448
Au 41.8013 63.8155 3.9302
Au 41.8028 39.9437 30.6771
Au 41.8039 47.8112 22.6615
Au 41.8084 15.0355 16.4374
Au 41.8133 50.6142 16.1782
Au 41.8228 53.4172 9.6949
Au 41.8306 18.7610 18.0958
Au 41.8323 56.2202 3.2115
Au 41.8373 41.7857 1.4700
Au 41.8528 22.4864 19.7543
Au 41.8595 45.5112 3.1284
Au 41.8750 26.2119 21.4127
Au 41.8806 1.3037 7.1730
Au 41.8817 49.2367 4.7869
Au 41.8972 29.9374 23.0711
Au 41.9028 5.0292 8.8314
Au 41.9094 5.7107 34.2151
Au 41.9194 33.6629 24.7296
Au 41.9250 8.7546 10.4899
Au 41.9416 37.3883 26.3880
Au 41.9472 12.4801 12.1483
Au 41.9638 41.1138 28.0465
Au 41.9694 16.2056 13.8068
Au 41.9740 77.5534 38.0855
Au 41.9763 3.8330 36.4025
Au 41.9916 19.9310 15.4652
Au 42.0051 69.9582 37.3669
Au 42.0126 12.1554 34.0420
Au 42.0138 23.6565 17.1237
Au 42.0145 72.7612 30.8836
Au 42.0205 46.6813 0.4978
Au 42.0240 75.5642 24.4003
Au 42.0335 78.3672 17.9170
Au 42.0360 27.3820 18.7821
Au 42.0361 62.3629 36.6483
Au 42.0416 2.4738 4.5424
Au 42.0427 50.4068 2.1563
Au 42.0433 1.9554 38.5900
Au 42.0456 65.1659 30.1650
Au 42.0550 67.9689 23.6817
Au 42.0582 31.1075 20.4406
Au 42.0638 6.1992 6.2008
Au 42.0645 70.7719 17.1983
Au 42.0671 54.7677 35.9297
Au 42.0740 73.5749 10.7150
Au 42.0766 57.5707 29.4463
Au 42.0796 10.2778 36.2295
Au 42.0804 34.8329 22.0990
Au 42.0835 76.3779 4.2317
Au 42.0860 9.9247 7.8593
Au 42.0861 60.3737 22.9630
Au 42.0956 63.1767 16.4797
Au 42.0982 47.1724 35.2110
Au 42.1026 38.5584 23.7574
Au 42.1050 65.9797 9.9964
Au 42.1076 49.9754 28.7277
Au 42.1082 13.6502 9.5177
Au 42.1145 68.7826 3.5131
Au 42.1159 18.6002 33.8690
Au 42.1171 52.7784 22.2444
Au 42.1248 42.2839 25.4159
Au 42.1266 55.5814 15.7611
Au 42.1304 17.3757 11.1762
Au 42.1361 58.3844 9.2778
Au 42.1455 61.1874 2.7945
Au 42.1465 8.4001 38.4170
Au 42.1526 21.1011 12.8346
Au 42.1681 1.8018 31.1189
Au 42.1748 24.8266 14.4931
Au 42.1828 16.7225 36.0565
Au 42.1970 28.5521 16.1515
Au 42.2027 3.6439 1.9118
Au 42.2191 25.0449 33.6960
Au 42.2192 32.2776 17.8100
Au 42.2248 7.3693 3.5702
Au 42.2414 36.0030 19.4684
Au 42.2470 11.0948 5.2287
Au 42.2498 14.8449 38.2439
Au 42.2636 39.7285 21.1268
Au 42.2692 14.8203 6.8871
Au 42.2858 43.4540 22.7853
Au 42.2861 23.1673 35.8835
Au 42.2914 18.5457 8.5456
Au 42.3136 22.2712 10.2040
Au 42.3183 74.9254 36.9498
Au 42.3224 31.4896 33.5230
Au 42.3278 77.7284 30.4665
Au 42.3291 2.9719 28.4883
Au 42.3358 25.9967 11.8625
Au 42.3493 67.3301 36.2312
Au 42.3513 6.6974 30.1468
Au 42.3530 21.2896 38.0709
Au 42.3580 29.7222 13.5209
Au 42.3588 70.1331 29.7479
Au 42.3683 72.9361 23.2646
Au 42.3735 10.4229 31.8052
Au 42.3778 75.7391 16.7813
Au 42.3802 33.4476 15.1794
Au 42.3804 59.7349 35.5126
Au 42.3858 8.5394 0.9397
Au 42.3872 78.5421 10.2979
Au 42.3893 29.6120 35.7104
Au 42.3898 62.5379 29.0293
Au 42.3993 65.3409 22.5459
Au 42.4024 37.1731 16.8378
Au 42.4080 12.2649 2.5981
Au 42.4088 68.1439 16.0626
Au 42.4114 52.1396 34.7940
Au 42.4183 70.9469 9.5793
Au 42.4209 54.9426 28.3106
Au 42.4246 40.8986 18.4963
Au 42.4277 73.7498 3.0960
Au 42.4302 15.9904 4.2565
Au 42.4303 57.7456 21.8273
Au 42.4398 60.5486 15.3440
Au 42.4424 44.5444 34.0753
Au 42.4468 44.6241 20.1547
Au 42.4493 63.3516 8.8607
Au 42.4519 47.3474 27.5920
Au 42.4524 19.7158 5.9150
Au 42.4563 27.7343 37.8979
Au 42.4588 66.1546 2.3774
Au 42.4614 50.1504 21.1087
Au 42.4679 0.4165 24.1993
Au 42.4708 52.9533 14.6254
Au 42.4746 23.4413 7.5734
Au 42.4803 55.7563 8.1421
Au 42.4898 58.5593 1.6587
Au 42.4901 4.1420 25.8577
Au 42.4926 36.0567 35.5374
Au 42.4968 27.1668 9.2319
Au 42.5123 7.8675 27.5162
Au 42.5190 30.8923 10.8903
Au 42.5345 11.5929 29.1746
Au 42.5412 34.6177 12.5488
Au 42.5567 15.3184 30.8331
Au 42.5596 34.1791 37.7249
Au 42.5634 38.3432 14.2072
Au 42.5856 42.0687 15.8657
Au 42.5912 17.1604 1.6260
Au 42.6078 45.7941 17.5241
Au 42.6134 20.8859 3.2844
Au 42.6265 32.3014 39.9123
Au 42.6289 1.5866 21.5687
Au 42.6315 79.8926 36.5327
Au 42.6356 24.6114 4.9428
Au 42.6511 5.3121 23.2271
Au 42.6578 28.3369 6.6013
Au 42.6626 72.2973 35.8141
Au 42.6628 40.6238 37.5518
Au 42.6720 75.1003 29.3308
Au 42.6733 9.0376 24.8856
Au 42.6800 32.0623 8.2597
Au 42.6815 77.9033 22.8475
Au 42.6936 64.7021 35.0955
Au 42.6955 12.7630 26.5440
Au 42.7022 35.7878 9.9182
Au 42.7031 67.5051 28.6122
Au 42.7125 70.3081 22.1289
Au 42.7177 16.4885 28.2025
Au 42.7220 73.1111 15.6455
Au 42.7244 39.5133 11.5766
Au 42.7246 57.1068 34.3769
Au 42.7298 38.7461 39.7393
Au 42.7315 75.9140 9.1622
Au 42.7341 59.9098 27.8936
Au 42.7399 20.2140 29.8609
Au 42.7410 78.7170 2.6789
Au 42.7436 62.7128 21.4102
Au 42.7466 43.2388 13.2351
Au 42.7530 65.5158 14.9269
Au 42.7556 49.5116 33.6582
Au 42.7621 23.9395 31.5194
Au 42.7625 68.3188 8.4436
Au 42.7651 52.3146 27.1749
Au 42.7688 46.9642 14.8935
Au 42.7720 71.1218 1.9603
Au 42.7744 22.0560 0.6538
Au 42.7746 55.1175 20.6916
Au 42.7841 57.9205 14.2083
Au 42.7843 27.6649 33.1778
Au 42.7899 2.7567 18.9381
Au 42.7935 60.7235 7.7250
Au 42.7962 44.7193 26.4563
Au 42.7966 25.7815 2.3122
Au 42.8030 63.5265 1.2417
Au 42.8121 6.4822 20.5965
Au 42.8151 50.3253 13.4897
Au 42.8188 29.5069 3.9707
Au 42.8246 53.1283 7.0064
Au 42.8341 55.9313 0.5230
Au 42.8343 10.2076 22.2550
Au 42.8410 33.2324 5.6291
Au 42.8565 13.9331 23.9134
Au 42.8632 36.9579 7.2876
Au 42.8787 17.6586 25.5719
Au 42.8854 40.6834 8.9460
Au 42.9009 21.3841 27.2303
Au 42.9076 44.4088 10.6045
Au 42.9231 25.1095 28.8888
Au 42.9288 0.2013 14.6491
Au 42.9298 48.1343 12.2629
Au 42.9453 28.8350 30.5472
Au 42.9509 3.9268 16.3075
Au 42.9675 32.5605 32.2057
Au 42.9731 7.6523 17.9659
Au 42.9758 77.2645 35.3970
Au 42.9798 30.6770 1.3401
Au 42.9953 11.3777 19.6244
Au 43.0020 34.4025 2.9985
Au 43.0068 69.6693 34.6784
Au 43.0163 72.4723 28.1951
Au 43.0175 15.1032 21.2828
Au 43.0242 38.1280 4.6570
Au 43.0258 75.2753 21.7118
Au 43.0352 78.0783 15.2285
Au 43.0379 62.0740 33.9598
Au 43.0397 18.8287 22.9413
Au 43.0464 41.8535 6.3154
Au 43.0473 64.8770 27.4765
Au 43.0568 67.6800 20.9932
Au 43.0594 51.6758 39.7245
Au 43.0619 22.5541 24.5997
Au 43.0663 70.4830 14.5098
Au 43.0686 45.5789 7.9739
Au 43.0689 54.4788 33.2412
Au 43.0758 73.2860 8.0265
Au 43.0784 57.2818 26.7578
Au 43.0841 26.2796 26.2582
Au 43.0852 76.0890 1.5432
Au 43.0878 60.0847 20.2745
Au 43.0898 1.3714 12.0185
Au 43.0904 44.0805 39.0058
Au 43.0908 49.3044 9.6323
Au 43.0933 1.8328 34.6514
Au 43.0973 62.8877 13.7912
Au 43.0999 46.8835 32.5225
Au 43.1063 30.0051 27.9166
Au 43.1068 65.6907 7.3079
Au 43.1094 49.6865 26.0392
Au 43.1119 5.0969 13.6769
Au 43.1163 68.4937 0.8246
Au 43.1189 52.4895 19.5559
Au 43.1283 55.2925 13.0726
Au 43.1285 33.7306 29.5751
Au 43.1341 8.8223 15.3353
Au 43.1378 58.0955 6.5893
Au 43.1473 60.8985 0.1060
Au 43.1507 37.4560 31.2335
Au 43.1563 12.5478 16.9938
Au 43.1630 35.5726 0.3680
Au 43.1729 41.1815 32.8920
Au 43.1785 16.2733 18.6522
Au 43.1852 39.2981 2.0264
Au 43.1966 8.2776 34.4784
Au 43.2007 19.9988 20.3107
Au 43.2074 43.0235 3.6848
Au 43.2229 23.7242 21.9691
Au 43.2296 46.7490 5.3433
Au 43.2451 27.4497 23.6276
Au 43.2508 2.5415 9.3879
Au 43.2518 50.4745 7.0017
Au 43.2635 6.3999 36.6658
Au 43.2673 31.1752 25.2860
Au 43.2730 6.2670 11.0463
Au 43.2895 34.9007 26.9445
Au 43.2951 9.9924 12.7048
Au 43.2998 14.7223 34.3053
Au 43.3117 38.6261 28.6029
Au 43.3173 13.7179 14.3632
Au 43.3201 74.6365 34.2613
Au 43.3295 77.4395 27.7780
Au 43.3305 4.5223 38.8533
Au 43.3339 42.3516 30.2614
Au 43.3395 17.4434 16.0216
Au 43.3511 67.0412 33.5427
Au 43.3606 69.8442 27.0594
Au 43.3617 21.1688 17.6801
Au 43.3668 12.8446 36.4928
Au 43.3684 44.1936 1.0543
Au 43.3700 72.6472 20.5761
Au 43.3726 56.6430 39.3074
Au 43.3795 75.4502 14.0928
Au 43.3821 59.4460 32.8241
Au 43.3839 24.8943 19.3385
Au 43.3890 78.2532 7.6094
Au 43.3906 47.9191 2.7127
Au 43.3916 62.2489 26.3408
Au 43.4011 65.0519 19.8574
Au 43.4037 49.0477 38.5888
Au 43.4061 28.6198 20.9970
Au 43.4105 67.8549 13.3741
Au 43.4118 3.7116 6.7573
Au 43.4128 51.6446 4.3711
Au 43.4131 51.8507 32.1054
Au 43.4200 70.6579 6.8908
Au 43.4226 54.6537 25.6221
Au 43.4283 32.3453 22.6554
Au 43.4295 73.4609 0.4075
Au 43.4321 57.4567 19.1388
Au 43.4338 10.9670 38.6803
Au 43.4340 7.4370 8.4157
Au 43.4416 60.2597 12.6555
Au 43.4442 44.2554 31.3868
Au 43.4505 36.0707 24.3139
Au 43.4510 63.0627 6.1722
Au 43.4536 47.0584 24.9035
Au 43.4561 11.1625 10.0742
Au 43.4631 49.8614 18.4202
Au 43.4701 19.2894 36.3198
Au 43.4726 52.6644 11.9369
Au 43.4727 39.7962 25.9723
Au 43.4783 14.8880 11.7326
Au 43.4821 55.4674 5.4536
Au 43.4949 43.5217 27.6308
Au 43.5005 18.6135 13.3911
Au 43.5227 22.3389 15.0495
Au 43.5370 17.4117 38.5072
Au 43.5382 3.0396 33.3338
Au 43.5449 26.0644 16.7079
Au 43.5506 1.1562 2.4682
Au 43.5516 49.0892 0.0821
Au 43.5671 29.7899 18.3664
Au 43.5728 4.8817 4.1267
Au 43.5733 25.7341 36.1468
Au 43.5893 33.5154 20.0248
Au 43.5950 8.6071 5.7851
Au 43.6115 37.2408 21.6833
Au 43.6171 12.3326 7.4436
Au 43.6333 79.6037 33.8442
Au 43.6337 40.9663 23.3417
Au 43.6393 16.0581 9.1020
Au 43.6403 23.8565 38.3342
Au 43.6548 69.2054 39.6089
Au 43.6615 19.7835 10.7605
Au 43.6643 72.0084 33.1256
Au 43.6738 74.8114 26.6423
Au 43.6766 32.1788 35.9737
Au 43.6770 0.4842 29.0447
Au 43.6833 77.6144 20.1590
Au 43.6837 23.5090 12.4189
Au 43.6859 61.6102 38.8903
Au 43.6953 64.4132 32.4070
Au 43.6992 4.2097 30.7032
Au 43.7048 67.2161 25.9237
Au 43.7059 27.2345 14.0774
Au 43.7143 70.0191 19.4404
Au 43.7169 54.0149 38.1717
Au 43.7214 7.9352 32.3616
Au 43.7238 72.8221 12.9570
Au 43.7264 56.8179 31.6884
Au 43.7281 30.9600 15.7358
Au 43.7332 75.6251 6.4737
Au 43.7338 6.0517 1.4961
Au 43.7358 59.6209 25.2050
Au 43.7435 30.3012 38.1612
Au 43.7436 11.6607 34.0201
Au 43.7453 62.4239 18.7217
Au 43.7479 46.4196 37.4531
Au 43.7503 34.6854 17.3942
Au 43.7548 65.2269 12.2384
Au 43.7560 9.7772 3.1545
Au 43.7574 49.2226 30.9697
Au 43.7643 68.0299 5.7551
Au 43.7669 52.0256 24.4864
Au 43.7725 38.4109 19.0527
Au 43.7764 54.8286 18.0031
Au 43.7782 13.5027 4.8130
Au 43.7798 38.6236 35.8007
Au 43.7858 57.6316 11.5198
Au 43.7947 42.1364 20.7111
Au 43.7953 60.4346 5.0365
Au 43.8003 17.2282 6.4714
Au 43.8225 20.9536 8.1299
Au 43.8381 1.6543 26.4142
Au 43.8447 24.6791 9.7883
Au 43.8468 36.7459 37.9882
Au 43.8602 5.3798 28.0726
Au 43.8669 28.4046 11.4468
Au 43.8824 9.1053 29.7310
Au 43.8891 32.1300 13.1052
Au 43.9046 12.8307 31.3895
Au 43.9113 35.8555 14.7637
Au 43.9170 10.9473 0.5239
Au 43.9268 16.5562 33.0479
Au 43.9335 39.5810 16.4221
Au 43.9392 14.6728 2.1824
Au 43.9490 20.2817 34.7064
Au 43.9557 43.3065 18.0805
Au 43.9613 18.3982 3.8408
Au 43.9681 74.1726 39.1918
Au 43.9775 76.9756 32.7085
Au 43.9835 22.1237 5.4993
Au 43.9870 79.7786 26.2252
Au 43.9991 2.8244 23.7836
Au 43.9991 66.5774 38.4732
Au 44.0057 25.8492 7.1577
Au 44.0086 69.3804 31.9899
Au 44.0181 72.1833 25.5066
Au 44.0212 6.5499 25.4420
Au 44.0275 74.9863 19.0233
Au 44.0279 29.5747 8.8162
Au 44.0301 58.9821 37.7546
Au 44.0370 77.7893 12.5400
Au 44.0396 61.7851 31.2713
Au 44.0434 10.2754 27.1005
Au 44.0491 64.5881 24.7880
Au 44.0501 33.3001 10.4746
Au 44.0586 67.3911 18.3046
Au 44.0612 51.3868 37.0360
Au 44.0656 14.0008 28.7589
Au 44.0680 70.1941 11.8213
Au 44.0706 54.1898 30.5527
Au 44.0723 37.0256 12.1331
Au 44.0775 72.9971 5.3380
Au 44.0801 56.9928 24.0693
Au 44.0878 17.7263 30.4173
Au 44.0896 59.7958 17.5860
Au 44.0922 43.7916 36.3173
Au 44.0945 40.7511 13.7915
Au 44.0991 62.5988 11.1027
Au 44.1017 46.5946 29.8340
Au 44.1085 65.4018 4.6194
Au 44.1100 21.4518 32.0758
Au 44.1111 49.3976 23.3507
Au 44.1167 44.4766 15.4499
Au 44.1206 52.2006 16.8674
Au 44.1224 19.5683 1.2102
Au 44.1301 55.0036 10.3841
Au 44.1322 25.1772 33.7342
Au 44.1379 0.2690 19.4945
Au 44.1396 57.8066 3.9008
Au 44.1445 23.2938 2.8687
Au 44.1601 3.9945 21.1530
Au 44.1667 27.0193 4.5271
Au 44.1822 7.7200 22.8114
Au 44.1889 30.7447 6.1856
Au 44.2044 11.4454 24.4699
Au 44.2111 34.4702 7.8440
Au 44.2266 15.1709 26.1283
Au 44.2333 38.1957 9.5025
Au 44.2488 18.8964 27.7868
Au 44.2555 41.9212 11.1609
Au 44.2710 22.6219 29.4452
Au 44.2777 45.6466 12.8194
Au 44.2813 79.1398 38.7748
Au 44.2932 26.3473 31.1036
Au 44.2989 1.4391 16.8639
Au 44.3055 24.4639 0.2381
Au 44.3123 71.5446 38.0561
Au 44.3154 30.0728 32.7621
Au 44.3211 5.1646 18.5224
Au 44.3218 74.3475 31.5728
Au 44.3277 28.1894 1.8965
Au 44.3313 77.1505 25.0895
Au 44.3376 33.7983 34.4205
Au 44.3408 79.9535 18.6062
Au 44.3433 8.8901 20.1808
Au 44.3434 63.9493 37.3375
Au 44.3499 31.9148 3.5550
Au 44.3528 66.7523 30.8542
Au 44.3623 69.5553 24.3709
Au 44.3654 12.6155 21.8393
Au 44.3718 72.3583 17.8876
Au 44.3721 35.6403 5.2134
Au 44.3744 56.3540 36.6189
Au 44.3813 75.1613 11.4042
Au 44.3839 59.1570 30.1356
Au 44.3876 16.3410 23.4977
Au 44.3907 77.9643 4.9209
Au 44.3933 61.9600 23.6523
Au 44.3943 39.3658 6.8719
Au 44.4028 64.7630 17.1689
Au 44.4054 48.7588 35.9003
Au 44.4098 20.0665 25.1562
Au 44.4123 67.5660 10.6856
Au 44.4149 51.5618 29.4169
Au 44.4165 43.0913 8.5303
Au 44.4218 70.3690 4.2023
Au 44.4244 54.3648 22.9336
Au 44.4320 23.7919 26.8146
Au 44.4338 57.1678 16.4503
Au 44.4364 41.1635 35.1816
Au 44.4387 46.8167 10.1888
Au 44.4433 59.9708 9.9670
Au 44.4475 2.5220 37.1022
Au 44.4528 62.7738 3.4837
Au 44.4542 27.5174 28.4730
Au 44.4554 46.7695 22.2150
Au 44.4599 2.6092 14.2333
Au 44.4649 49.5725 15.7317
Au 44.4743 52.3755 9.2484
Au 44.4764 31.2429 30.1315
Au 44.4821 6.3347 15.8918
Au 44.4838 55.1785 2.7651
Au 44.4986 34.9684 31.7899
Au 44.5043 10.0601 17.5502
Au 44.5109 33.0849 0.9244
Au 44.5145 0.6444 39.2896
Au 44.5208 38.6938 33.4484
Au 44.5264 13.7856 19.2087
Au 44.5331 36.8104 2.5828
Au 44.5486 17.5111 20.8671
Au 44.5508 8.9668 36.9291
Au 44.5553 40.5359 4.2413
Au 44.5708 21.2366 22.5256
Au 44.5775 44.2613 5.8997
Au 44.5930 24.9620 24.1840
Au 44.5987 0.0538 9.9443
Au 44.5997 47.9868 7.5582
Au 44.6152 28.6875 25.8425
Au 44.6177 7.0891 39.1166
Au 44.6209 3.7793 11.6027
Au 44.6256 76.5118 37.6391
Au 44.6350 79.3147 31.1557
Au 44.6374 32.4130 27.5009
Au 44.6431 7.5048 13.2612
Au 44.6540 15.4115 36.7561
Au 44.6566 68.9165 36.9204
Au 44.6596 36.1385 29.1593
Au 44.6653 11.2302 14.9196
Au 44.6661 71.7195 30.4371
Au 44.6755 74.5225 23.9538
Au 44.6818 39.8639 30.8178
Au 44.6850 77.3255 17.4705
Au 44.6875 14.9557 16.5781
Au 44.6876 61.3212 36.2018
Au 44.6971 64.1242 29.7185
Au 44.7066 66.9272 23.2352
Au 44.7096 18.6812 18.2365
Au 44.7160 69.7302 16.7519
Au 44.7163 41.7060 1.6107
Au 44.7186 53.7260 35.4832
Au 44.7210 13.5338 38.9436
Au 44.7255 72.5332 10.2685
Au 44.7281 56.5290 28.9999
Au 44.7318 22.4066 19.8950
Au 44.7350 75.3362 3.7852
Au 44.7376 59.3320 22.5165
Au 44.7385 45.4314 3.2691
Au 44.7471 62.1350 16.0332
Au 44.7497 46.1307 34.7645
Au 44.7540 26.1321 21.5534
Au 44.7566 64.9380 9.5499
Au 44.7573 21.8562 36.5831
Au 44.7592 48.9337 28.2812
Au 44.7597 1.2239 7.3137
Au 44.7607 49.1569 4.9276
Au 44.7660 67.7410 3.0666
Au 44.7686 51.7367 21.7979
Au 44.7762 29.8576 23.2119
Au 44.7781 54.5397 15.3146
Au 44.7819 4.9494 8.9722
Au 44.7876 57.3427 8.8313
Au 44.7971 60.1457 2.3480
Au 44.7984 33.5831 24.8703
Au 44.8041 8.6748 10.6306
Au 44.8206 37.3085 26.5288
Au 44.8242 19.9786 38.7705
Au 44.8263 12.4003 12.2890
Au 44.8428 41.0340 28.1872
Au 44.8485 16.1258 13.9475
Au 44.8605 28.3010 36.4100
Au 44.8706 19.8513 15.6059
Au 44.8862 0.5520 33.8902
Au 44.8928 23.5767 17.2644
Au 44.8995 46.6015 0.6385
Au 44.9084 4.2774 35.5487
Au 44.9150 27.3022 18.9228
Au 44.9207 2.3940 4.6831
Au 44.9217 50.3270 2.2970
Au 44.9275 26.4233 38.5975
Au 44.9372 31.0277 20.5813
Au 44.9429 6.1194 6.3416
Au 44.9594 34.7531 22.2397
Au 44.9638 34.7457 36.2370
Au 44.9651 9.8449 8.0000
Au 44.9698 73.8837 36.5033
Au 44.9793 76.6867 30.0200
Au 44.9816 38.4786 23.8982
Au 44.9873 13.5704 9.6584
Au 44.9888 79.4897 23.5367
Au 45.0009 66.2884 35.7847
Au 45.0038 42.2041 25.5566
Au 45.0095 17.2959 11.3169
Au 45.0103 69.0914 29.3014
Au 45.0198 71.8944 22.8181
Au 45.0293 74.6974 16.3348
Au 45.0307 32.8681 38.4245
Au 45.0316 21.0213 12.9753
Au 45.0319 58.6932 35.0661
Au 45.0388 77.5004 9.8515
Au 45.0414 61.4962 28.5828
Au 45.0472 1.7220 31.2596
Au 45.0508 64.2992 22.0995
Au 45.0538 24.7468 14.6338
Au 45.0603 67.1022 15.6161
Au 45.0629 51.0979 34.3475
Au 45.0694 5.4475 32.9181
Au 45.0698 69.9052 9.1328
Au 45.0724 53.9009 27.8641
Au 45.0760 28.4723 16.2922
Au 45.0793 72.7082 2.6495
Au 45.0817 3.5641 2.0525
Au 45.0819 56.7039 21.3808
Au 45.0913 59.5069 14.8975
Au 45.0915 9.1730 34.5765
Au 45.0939 43.5027 33.6288
Au 45.0982 32.1978 17.9507
Au 45.1008 62.3099 8.4142
Au 45.1034 46.3057 27.1455
Au 45.1039 7.2895 3.7110
Au 45.1103 65.1129 1.9309
Au 45.1129 49.1087 20.6622
Au 45.1204 35.9232 19.6091
Au 45.1224 51.9117 14.1789
Au 45.1261 11.0150 5.3694
Au 45.1318 54.7146 7.6956
Au 45.1340 39.3128 38.2515
Au 45.1413 57.5176 1.2123
Au 45.1426 39.6487 21.2676
Au 45.1483 14.7405 7.0279
Au 45.1648 43.3742 22.9260
Au 45.1705 18.4660 8.6863
Au 45.1927 22.1914 10.3447
Au 45.2082 2.8921 28.6290
Au 45.2148 25.9169 12.0032
Au 45.2304 6.6176 30.2875
Au 45.2370 29.6424 13.6616
Au 45.2525 10.3431 31.9459
Au 45.2592 33.3678 15.3201
Au 45.2649 8.4596 1.0804
Au 45.2747 14.0685 33.6044
Au 45.2814 37.0933 16.9785
Au 45.2831 78.8509 36.0863
Au 45.2871 12.1851 2.7388
Au 45.2969 17.7940 35.2628
Au 45.3036 40.8188 18.6370
Au 45.3093 15.9106 4.3973
Au 45.3141 71.2556 35.3676
Au 45.3236 74.0586 28.8843
Au 45.3258 44.5443 20.2954
Au 45.3315 19.6360 6.0557
Au 45.3330 76.8616 22.4010
Au 45.3425 79.6646 15.9177
Au 45.3451 63.6604 34.6490
Au 45.3470 0.3367 24.3400
Au 45.3537 23.3615 7.7142
Au 45.3546 66.4634 28.1657
Au 45.3641 69.2664 21.6824
Au 45.3692 4.0622 25.9984
Au 45.3735 72.0694 15.1991
Au 45.3758 27.0870 9.3726
Au 45.3761 56.0651 33.9304
Au 45.3830 74.8724 8.7157
Au 45.3856 58.8681 27.4471
Au 45.3914 7.7877 27.6569
Au 45.3925 77.6754 2.2324
Au 45.3951 61.6711 20.9637
Au 45.3977 45.6669 39.6951
Au 45.3980 30.8125 11.0310
Au 45.4046 64.4741 14.4804
Au 45.4072 48.4699 33.2118
Au 45.4136 11.5132 29.3153
Au 45.4140 67.2771 7.9971
Au 45.4166 51.2729 26.7284
Au 45.4202 34.5379 12.6895
Au 45.4235 70.0801 1.5138
Au 45.4261 54.0759 20.2451
Au 45.4356 56.8789 13.7618
Au 45.4357 15.2386 30.9738
Au 45.4424 38.2634 14.3479
Au 45.4451 59.6818 7.2785
Au 45.4481 13.3552 0.1082
Au 45.4545 62.4848 0.7952
Au 45.4571 46.4806 19.5265
Au 45.4579 18.9641 32.6322
Au 45.4646 41.9889 16.0064
Au 45.4666 49.2836 13.0432
Au 45.4703 17.0807 1.7667
Au 45.4761 52.0866 6.5599
Au 45.4801 22.6896 34.2907
Au 45.4856 54.8896 0.0765
Au 45.4868 45.7144 17.6648
Au 45.4925 20.8061 3.4251
Au 45.5023 26.4150 35.9491
Au 45.5080 1.5068 21.7094
Au 45.5147 24.5316 5.0836
Au 45.5302 5.2323 23.3678
Au 45.5368 28.2571 6.7420
Au 45.5524 8.9578 25.0263
Au 45.5590 31.9825 8.4005
Au 45.5746 12.6832 26.6847
Au 45.5812 35.7080 10.0589
Au 45.5967 16.4087 28.3432
Au 45.6034 39.4335 11.7173
Au 45.6189 20.1342 30.0016
Au 45.6256 43.1590 13.3758
Au 45.6273 76.2228 34.9505
Au 45.6368 79.0258 28.4672
Au 45.6411 23.8597 31.6601
Au 45.6478 46.8844 15.0342
Au 45.6535 21.9762 0.7945
Au 45.6583 68.6276 34.2319
Au 45.6633 27.5851 33.3185
Au 45.6678 71.4306 27.7486
Au 45.6690 2.6769 19.0788
Au 45.6757 25.7017 2.4530
Au 45.6773 74.2336 21.2653
Au 45.6799 58.2293 39.9966
Au 45.6855 31.3106 34.9770
Au 45.6868 77.0366 14.7820
Au 45.6894 61.0323 33.5133
Au 45.6912 6.4024 20.7373
Au 45.6962 79.8396 8.2987
Au 45.6979 29.4272 4.1114
Au 45.6988 63.8353 27.0300
Au 45.7083 66.6383 20.5467
Au 45.7109 50.6341 39.2780
Au 45.7134 10.1279 22.3957
Au 45.7178 69.4413 14.0633
Au 45.7200 33.1526 5.7699
Au 45.7204 53.4371 32.7947
Au 45.7273 72.2443 7.5800
Au 45.7299 56.2401 26.3114
Au 45.7347 5.0889 37.3655
Au 45.7356 13.8533 24.0541
Au 45.7368 75.0473 1.0967
Au 45.7394 59.0431 19.8280
Au 45.7420 43.0388 38.5594
Au 45.7422 36.8781 7.4283
Au 45.7488 61.8460 13.3447
Au 45.7514 45.8418 32.0760
Au 45.7578 17.5788 25.7126
Au 45.7583 64.6490 6.8614
Au 45.7609 48.6448 25.5927
Au 45.7644 40.6036 9.0867
Au 45.7678 67.4520 0.3781
Au 45.7704 51.4478 19.1094
Au 45.7799 54.2508 12.6261
Au 45.7799 21.3043 27.3710
Au 45.7866 44.3290 10.7452
Au 45.7893 57.0538 6.1428
Au 45.8017 3.2112 39.5529
Au 45.8021 25.0297 29.0295
Au 45.8078 0.1215 14.7898
Au 45.8243 28.7552 30.6879
Au 45.8300 3.8470 16.4482
Au 45.8380 11.5336 37.1924
Au 45.8465 32.4807 32.3464
Au 45.8522 7.5725 18.1067
Au 45.8589 30.5972 1.4808
Au 45.8687 36.2062 34.0048
Au 45.8744 11.2979 19.7651
Au 45.8810 34.3227 3.1393
Au 45.8909 39.9316 35.6633
Au 45.8966 15.0234 21.4236
Au 45.9032 38.0482 4.7977
Au 45.9050 9.6560 39.3799
Au 45.9188 18.7489 23.0820
Au 45.9254 41.7737 6.4562
Au 45.9409 22.4744 24.7404
Au 45.9412 17.9784 37.0194
Au 45.9476 45.4991 8.1146
Au 45.9631 26.1998 26.3989
Au 45.9688 1.2916 12.1592
Au 45.9698 49.2246 9.7730
Au 45.9716 73.5948 33.8148
Au 45.9811 76.3978 27.3315
Au 45.9853 29.9253 28.0573
Au 45.9905 79.2008 20.8482
Au 45.9910 5.0171 13.8176
Au 45.9931 63.1965 39.5795
Au 46.0026 65.9995 33.0962
Au 46.0075 33.6508 29.7158
Au 46.0082 16.1007 39.2069
Au 46.0121 68.8025 26.6129
Au 46.0132 8.7425 15.4761
Au 46.0216 71.6055 20.1296
Au 46.0242 55.6013 38.8609
Au 46.0297 37.3762 31.3742
Au 46.0310 74.4085 13.6463
Au 46.0336 58.4043 32.3776
Au 46.0354 12.4680 17.1345
Au 46.0405 77.2115 7.1629
Au 46.0421 35.4928 0.5087
Au 46.0431 61.2073 25.8943
Au 46.0526 64.0103 19.4110
Au 46.0552 48.0060 38.1423
Au 46.0576 16.1935 18.7930
Au 46.0621 66.8132 12.9276
Au 46.0642 39.2183 2.1671
Au 46.0647 50.8090 31.6590
Au 46.0715 69.6162 6.4443
Au 46.0741 53.6120 25.1756
Au 46.0798 19.9190 20.4514
Au 46.0836 56.4150 18.6923
Au 46.0864 42.9437 3.8256
Au 46.0931 59.2180 12.2090
Au 46.0957 43.2138 30.9403
Au 46.1019 23.6444 22.1098
Au 46.1026 62.0210 5.7257
Au 46.1052 46.0167 24.4570
Au 46.1086 46.6692 5.4840
Au 46.1115 22.5454 39.0338
Au 46.1146 48.8197 17.9737
Au 46.1241 51.6227 11.4904
Au 46.1241 27.3699 23.7683
Au 46.1298 2.4617 9.5286
Au 46.1308 50.3947 7.1425
Au 46.1336 54.4257 5.0071
Au 46.1463 31.0954 25.4267
Au 46.1520 6.1872 11.1870
Au 46.1685 34.8209 27.0852
Au 46.1742 9.9126 12.8455
Au 46.1907 38.5463 28.7436
Au 46.1964 13.6381 14.5039
Au 46.2147 28.9902 38.8608
Au 46.2186 17.3636 16.1624
Au 46.2408 21.0891 17.8208
Au 46.2474 44.1138 1.1950
Au 46.2563 1.7897 36.1051
Au 46.2630 24.8145 19.4793
Au 46.2696 47.8393 2.8534
Au 46.2753 75.7590 39.8811
Au 46.2848 78.5620 33.3978
Au 46.2851 28.5400 21.1377
Au 46.2908 3.6318 6.8980
Au 46.3064 68.1637 39.1624
Au 46.3073 32.2655 22.7961
Au 46.3130 7.3572 8.5564
Au 46.3158 70.9667 32.6791
Au 46.3180 35.4349 38.6878
Au 46.3253 73.7697 26.1958
Au 46.3295 35.9909 24.4546
Au 46.3348 76.5727 19.7125
Au 46.3352 11.0827 10.2149
Au 46.3374 60.5685 38.4438
Au 46.3443 79.3757 13.2292
Au 46.3469 63.3715 31.9605
Au 46.3517 39.7164 26.1130
Au 46.3563 66.1745 25.4772
Au 46.3574 14.8082 11.8733
Au 46.3658 68.9775 18.9939
Au 46.3684 52.9732 37.7252
Au 46.3753 71.7804 12.5106
Au 46.3779 55.7762 31.2419
Au 46.3796 18.5337 13.5318
Au 46.3848 74.5834 6.0272
Au 46.3874 58.5792 24.7586
Au 46.3968 61.3822 18.2752
Au 46.3994 45.3780 37.0066
Au 46.4018 22.2591 15.1902
Au 46.4063 64.1852 11.7919
Au 46.4089 48.1810 30.5232
Au 46.4158 66.9882 5.3086
Au 46.4173 2.9598 33.4745
Au 46.4184 50.9839 24.0399
Au 46.4240 25.9846 16.8487
Au 46.4279 53.7869 17.5566
Au 46.4296 1.0764 2.6090
Au 46.4306 49.0094 0.2228
Au 46.4373 56.5899 11.0733
Au 46.4395 6.6853 35.1329
Au 46.4461 29.7101 18.5071
Au 46.4468 59.3929 4.5900
Au 46.4518 4.8019 4.2674
Au 46.4683 33.4356 20.1656
Au 46.4740 8.5273 5.9258
Au 46.4779 51.7977 3.8714
Au 46.4905 37.1610 21.8240
Au 46.4962 12.2528 7.5843
Au 46.5127 40.8865 23.4824
Au 46.5184 15.9783 9.2427
Au 46.5406 19.7038 10.9012
Au 46.5561 0.4044 29.1855
Au 46.5628 23.4292 12.5596
Au 46.5783 4.1299 30.8439
Au 46.5850 27.1547 14.2181
Au 46.6005 7.8554 32.5024
Au 46.6072 30.8802 15.8765
Au 46.6128 5.9719 1.6368
Au 46.6196 73.1309 38.7454
Au 46.6227 11.5809 34.1608
Au 46.6291 75.9339 32.2620
Au 46.6293 34.6056 17.5350
Au 46.6350 9.6974 3.2952
Au 46.6385 78.7369 25.7787
Au 46.6449 15.3063 35.8192
Au 46.6506 65.5357 38.0267
Au 46.6515 38.3311 19.1934
Au 46.6572 13.4229 4.9537
Au 46.6601 68.3387 31.5434
Au 46.6696 71.1417 25.0601
Au 46.6737 42.0566 20.8519
Au 46.6790 73.9446 18.5768
Au 46.6794 17.1484 6.6121
Au 46.6816 57.9404 37.3081
Au 46.6885 76.7476 12.0935
Au 46.6911 60.7434 30.8248
Au 46.6980 79.5506 5.6102
Au 46.7006 63.5464 24.3415
Au 46.7016 20.8738 8.2706
Au 46.7101 66.3494 17.8582
Au 46.7127 50.3452 36.5895
Au 46.7171 1.5745 26.5549
Au 46.7196 69.1524 11.3748
Au 46.7222 53.1481 30.1062
Au 46.7238 24.5993 9.9290
Au 46.7290 71.9554 4.8915
Au 46.7316 55.9511 23.6228
Au 46.7393 5.3000 28.2133
Au 46.7411 58.7541 17.1395
Au 46.7437 42.7499 35.8709
Au 46.7460 28.3248 11.5875
Au 46.7506 61.5571 10.6562
Au 46.7532 45.5529 29.3875
Au 46.7601 64.3601 4.1729
Au 46.7615 9.0255 29.8718
Au 46.7627 48.3559 22.9042
Au 46.7682 32.0503 13.2459
Au 46.7721 51.1589 16.4209
Au 46.7816 53.9619 9.9376
Au 46.7837 12.7510 31.5302
Au 46.7903 35.7757 14.9044
Au 46.7911 56.7649 3.4543
Au 46.7960 10.8675 0.6647
Au 46.8059 16.4764 33.1887
Au 46.8125 39.5012 16.5628
Au 46.8182 14.5930 2.3231
Au 46.8281 20.2019 34.8471
Au 46.8347 43.2267 18.2213
Au 46.8404 18.3185 3.9815
Au 46.8502 23.9274 36.5055
Au 46.8626 22.0439 5.6400
Au 46.8781 2.7446 23.9243
Au 46.8848 25.7694 7.2984
Au 46.9003 6.4701 25.5827
Au 46.9070 29.4949 8.9569
Au 46.9187 1.2110 37.8018
Au 46.9225 10.1956 27.2412
Au 46.9292 33.2203 10.6153
Au 46.9328 78.0981 38.3283
Au 46.9447 13.9210 28.8996
Au 46.9513 36.9458 12.2738
Au 46.9639 70.5029 37.6096
Au 46.9669 17.6465 30.5581
Au 46.9733 73.3059 31.1263
Au 46.9735 40.6713 13.9322
Au 46.9828 76.1089 24.6430
Au 46.9891 21.3720 32.2165
Au 46.9923 78.9118 18.1597
Au 46.9949 62.9076 36.8910
Au 46.9957 44.3968 15.5907
Au 47.0014 19.4885 1.3510
Au 47.0044 65.7106 30.4077
Au 47.0112 25.0975 33.8750
Au 47.0138 68.5136 23.9244
Au 47.0169 0.1892 19.6352
Au 47.0220 7.6558 37.6288
Au 47.0233 71.3166 17.4411
Au 47.0236 23.2140 3.0094
Au 47.0259 55.3124 36.1724
Au 47.0328 74.1196 10.9578
Au 47.0334 28.8229 35.5334
Au 47.0354 58.1153 29.6891
Au 47.0391 3.9147 21.2937
Au 47.0423 76.9226 4.4744
Au 47.0449 60.9183 23.2058
Au 47.0458 26.9395 4.6678
Au 47.0543 63.7213 16.7224
Au 47.0556 32.5484 37.1918
Au 47.0569 47.7171 35.4538
Au 47.0613 7.6402 22.9521
Au 47.0638 66.5243 10.2391
Au 47.0664 50.5201 28.9705
Au 47.0680 30.6650 6.3263
Au 47.0733 69.3273 3.7558
Au 47.0759 53.3231 22.4871
Au 47.0835 11.3656 24.6106
Au 47.0854 56.1261 16.0038
Au 47.0889 5.7781 39.8162
Au 47.0902 34.3904 7.9847
Au 47.0948 58.9291 9.5205
Au 47.0974 42.9248 28.2518
Au 47.1043 61.7321 3.0372
Au 47.1057 15.0911 26.2690
Au 47.1069 45.7278 21.7685
Au 47.1124 38.1159 9.6432
Au 47.1164 48.5308 15.2852
Au 47.1259 51.3338 8.8019
Au 47.1279 18.8166 27.9275
Au 47.1345 41.8414 11.3016
Au 47.1353 54.1368 2.3186
Au 47.1501 22.5421 29.5859
Au 47.1567 45.5668 12.9601
Au 47.1722 26.2675 31.2444
Au 47.1779 1.3593 17.0046
Au 47.1846 24.3841 0.3788
Au 47.1922 12.2228 39.6432
Au 47.1944 29.9930 32.9028
Au 47.2001 5.0848 18.6631
Au 47.2068 28.1096 2.0373
Au 47.2166 33.7185 34.5612
Au 47.2223 8.8103 20.3215
Au 47.2290 31.8350 3.6957
Au 47.2388 37.4440 36.2197
Au 47.2445 12.5357 21.9800
Au 47.2512 35.5605 5.3541
Au 47.2667 16.2612 23.6384
Au 47.2734 39.2860 7.0126
Au 47.2771 75.4701 37.1926
Au 47.2866 78.2731 30.7092
Au 47.2889 19.9867 25.2969
Au 47.2954 18.6676 39.4702
Au 47.2955 43.0115 8.6710
Au 47.3081 67.8748 36.4739
Au 47.3111 23.7122 26.9553
Au 47.3176 70.6778 29.9906
Au 47.3177 46.7369 10.3295
Au 47.3271 73.4808 23.5073
Au 47.3333 27.4376 28.6138
Au 47.3365 76.2838 17.0240
Au 47.3389 2.5294 14.3741
Au 47.3391 60.2795 35.7553
Au 47.3460 79.0868 10.5407
Au 47.3486 63.0825 29.2720
Au 47.3554 31.1631 30.2722
Au 47.3581 65.8855 22.7887
Au 47.3611 6.2549 16.0325
Au 47.3676 68.6885 16.3054
Au 47.3702 52.6843 35.0367
Au 47.3770 71.4915 9.8220
Au 47.3776 34.8886 31.9307
Au 47.3796 55.4873 28.5534
Au 47.3833 9.9803 17.6909
Au 47.3865 74.2945 3.3387
Au 47.3891 58.2903 22.0701
Au 47.3900 33.0051 1.0651
Au 47.3986 61.0933 15.5867
Au 47.3987 25.1123 39.2971
Au 47.3998 38.6140 33.5891
Au 47.4012 45.0890 34.3181
Au 47.4055 13.7058 19.3494
Au 47.4081 63.8963 9.1034
Au 47.4107 47.8920 27.8347
Au 47.4122 36.7306 2.7236
Au 47.4175 66.6993 2.6201
Au 47.4201 50.6950 21.3514
Au 47.4277 17.4313 21.0078
Au 47.4296 53.4980 14.8681
Au 47.4344 40.4561 4.3820
Au 47.4391 56.3010 8.3848
Au 47.4486 59.1040 1.9015
Au 47.4499 21.1568 22.6663
Au 47.4565 44.1815 6.0404
Au 47.4721 24.8822 24.3247
Au 47.4787 47.9070 7.6989
Au 47.4943 28.6077 25.9832
Au 47.4999 3.6995 11.7435
Au 47.5019 31.5570 39.1241
Au 47.5164 32.3332 27.6416
Au 47.5221 7.4250 13.4019
Au 47.5386 36.0587 29.3001
Au 47.5443 11.1504 15.0604
Au 47.5608 39.7841 30.9585
Au 47.5665 14.8759 16.7188
Au 47.5732 37.9007 0.0930
Au 47.5887 18.6014 18.3772
Au 47.5954 41.6262 1.7514
Au 47.6052 38.0018 38.9511
Au 47.6109 22.3269 20.0357
Au 47.6176 45.3516 3.4098
Au 47.6213 72.8420 36.0569
Au 47.6308 75.6450 29.5735
Au 47.6331 26.0523 21.6941
Au 47.6387 1.1441 7.4544
Au 47.6397 49.0771 5.0683
Au 47.6403 78.4480 23.0902
Au 47.6524 65.2467 35.3382
Au 47.6553 29.7778 23.3526
Au 47.6609 4.8696 9.1129
Au 47.6618 68.0497 28.8549
Au 47.6713 70.8527 22.3716
Au 47.6775 33.5033 25.0110
Au 47.6808 73.6557 15.8883
Au 47.6831 8.5950 10.7713
Au 47.6834 57.6515 34.6196
Au 47.6903 76.4587 9.4050
Au 47.6929 60.4545 28.1363
Au 47.6996 37.2287 26.6695
Au 47.6998 79.2617 2.9216
Au 47.7024 63.2575 21.6530
Au 47.7053 12.3205 12.4298
Au 47.7118 66.0605 15.1697
Au 47.7144 50.0562 33.9010
Au 47.7213 68.8635 8.6863
Au 47.7218 40.9542 28.3279
Au 47.7239 52.8592 27.4177
Au 47.7275 16.0460 14.0882
Au 47.7308 71.6665 2.2030
Au 47.7334 55.6622 20.9343
Au 47.7360 39.6580 39.6657
Au 47.7429 58.4652 14.4510
Au 47.7455 42.4610 33.1823
Au 47.7497 19.7715 15.7467
Au 47.7523 61.2682 7.9677
Au 47.7549 45.2640 26.6990
Au 47.7618 64.0712 1.4844
Au 47.7644 48.0670 20.2157
Au 47.7652 0.4722 34.0309
Au 47.7719 23.4969 17.4051
Au 47.7739 50.8700 13.7324
Au 47.7786 46.5217 0.7793
Au 47.7834 53.6730 7.2491
Au 47.7874 4.1976 35.6894
Au 47.7928 56.4760 0.7658
Au 47.7941 27.2224 19.0635
Au 47.7997 2.3142 4.8238
Au 47.8007 50.2472 2.4377
Au 47.8163 30.9479 20.7220
Au 47.8219 6.0397 6.4823
Au 47.8385 34.6734 22.3804
Au 47.8441 9.7651 8.1407
Au 47.8606 38.3988 24.0389
Au 47.8663 13.4906 9.7992
Au 47.8828 42.1243 25.6973
Au 47.8885 17.2161 11.4576
Au 47.9107 20.9415 13.1161
Au 47.9262 1.6422 31.4003
Au 47.9329 24.6670 14.7745
Au 47.9346 77.8092 35.6398
Au 47.9484 5.3677 33.0588
Au 47.9551 28.3925 16.4329
Au 47.9607 3.4843 2.1932
Au 47.9656 70.2139 34.9211
Au 47.9706 9.0932 34.7172
Au 47.9751 73.0169 28.4378
Au 47.9773 32.1180 18.0914
Au 47.9829 7.2097 3.8517
Au 47.9846 75.8199 21.9545
Au 47.9928 12.8187 36.3757
Au 47.9940 78.6229 15.4712
Au 47.9966 62.6187 34.2025
Au 47.9995 35.8434 19.7498
Au 48.0051 10.9352 5.5101
Au 48.0061 65.4217 27.7192
Au 48.0150 16.5441 38.0341
Au 48.0156 68.2247 21.2359
Au 48.0182 52.2204 39.9672
Au 48.0216 39.5689 21.4083
Au 48.0251 71.0277 14.7526
Au 48.0273 14.6607 7.1686
Au 48.0277 55.0234 33.4839
Au 48.0345 73.8307 8.2693
Au 48.0371 57.8264 27.0006
Au 48.0438 43.2944 23.0667
Au 48.0440 76.6337 1.7859
Au 48.0466 60.6294 20.5173
Au 48.0492 44.6252 39.2486
Au 48.0495 18.3862 8.8270
Au 48.0561 63.4324 14.0339
Au 48.0587 47.4282 32.7653
Au 48.0656 66.2354 7.5506
Au 48.0682 50.2312 26.2819
Au 48.0717 22.1116 10.4855
Au 48.0750 69.0384 1.0673
Au 48.0776 53.0342 19.7986
Au 48.0871 55.8372 13.3153
Au 48.0872 2.8123 28.7697
Au 48.0939 25.8371 12.1439
Au 48.0966 58.6402 6.8320
Au 48.1061 61.4431 0.3487
Au 48.1094 6.5378 30.4282
Au 48.1161 29.5626 13.8024
Au 48.1181 48.2419 12.5967
Au 48.1276 51.0449 6.1134
Au 48.1316 10.2633 32.0866
Au 48.1383 33.2881 15.4608
Au 48.1439 8.3798 1.2211
Au 48.1538 13.9887 33.7451
Au 48.1605 37.0135 17.1192
Au 48.1661 12.1053 2.8795
Au 48.1760 17.7142 35.4035
Au 48.1827 40.7390 18.7777
Au 48.1883 15.8308 4.5380
Au 48.1982 21.4397 37.0620
Au 48.2048 44.4645 20.4361
Au 48.2105 19.5562 6.1964
Au 48.2260 0.2569 24.4807
Au 48.2327 23.2817 7.8549
Au 48.2482 3.9824 26.1392
Au 48.2549 27.0072 9.5133
Au 48.2704 7.7079 27.7976
Au 48.2771 30.7327 11.1718
Au 48.2788 75.1811 34.5041
Au 48.2883 77.9841 28.0207
Au 48.2926 11.4334 29.4560
Au 48.2993 34.4581 12.8302
Au 48.3099 67.5859 33.7854
Au 48.3148 15.1588 31.1145
Au 48.3193 70.3889 27.3021
Au 48.3215 38.1836 14.4887
Au 48.3271 13.2754 0.2489
Au 48.3288 73.1919 20.8188
Au 48.3314 57.1876 39.5501
Au 48.3370 18.8843 32.7729
Au 48.3383 75.9949 14.3355
Au 48.3409 59.9906 33.0668
Au 48.3437 41.9091 16.1471
Au 48.3478 78.7979 7.8522
Au 48.3493 17.0009 1.9074
Au 48.3504 62.7936 26.5835
Au 48.3592 22.6098 34.4314
Au 48.3598 65.5966 20.1002
Au 48.3624 49.5924 38.8315
Au 48.3658 45.6346 17.8055
Au 48.3693 68.3996 13.6169
Au 48.3715 20.7263 3.5658
Au 48.3719 52.3954 32.3482
Au 48.3788 71.2026 7.1335
Au 48.3814 26.3353 36.0898
Au 48.3814 55.1984 25.8649
Au 48.3870 1.4270 21.8501
Au 48.3883 74.0056 0.6502
Au 48.3909 58.0014 19.3815
Au 48.3935 41.9971 38.1129
Au 48.3937 24.4518 5.2243
Au 48.4004 60.8044 12.8982
Au 48.4030 44.8001 31.6296
Au 48.4036 30.0607 37.7483
Au 48.4092 5.1525 23.5086
Au 48.4098 63.6074 6.4149
Au 48.4124 47.6031 25.1462
Au 48.4159 28.1773 6.8827
Au 48.4219 50.4061 18.6629
Au 48.4314 53.2091 12.1796
Au 48.4314 8.8780 25.1670
Au 48.4381 31.9028 8.5412
Au 48.4409 56.0121 5.6963
Au 48.4536 12.6034 26.8255
Au 48.4603 35.6282 10.1996
Au 48.4758 16.3289 28.4839
Au 48.4794 14.7897 39.9065
Au 48.4825 39.3537 11.8581
Au 48.4980 20.0544 30.1423
Au 48.5047 43.0792 13.5165
Au 48.5202 23.7799 31.8008
Au 48.5269 46.8046 15.1750
Au 48.5325 21.8964 0.9352
Au 48.5424 27.5053 33.4592
Au 48.5480 2.5971 19.2195
Au 48.5547 25.6219 2.5937
Au 48.5646 31.2308 35.1177
Au 48.5702 6.3226 20.8780
Au 48.5769 29.3474 4.2521
Au 48.5827 21.2344 39.7335
Au 48.5867 34.9563 36.7761
Au 48.5924 10.0481 22.5364
Au 48.5991 33.0728 5.9106
Au 48.6136 69.7501 39.8517
Au 48.6146 13.7735 24.1949
Au 48.6213 36.7983 7.5690
Au 48.6231 72.5531 33.3683
Au 48.6326 75.3561 26.8850
Au 48.6368 17.4990 25.8533
Au 48.6421 78.1591 20.4017
Au 48.6435 40.5238 9.2275
Au 48.6447 62.1548 39.1330
Au 48.6541 64.9578 32.6497
Au 48.6590 21.2245 27.5118
Au 48.6636 67.7608 26.1664
Au 48.6657 44.2493 10.8859
Au 48.6731 70.5638 19.6831
Au 48.6757 54.5596 38.4144
Au 48.6812 24.9500 29.1702
Au 48.6826 73.3668 13.1998
Au 48.6852 57.3626 31.9311
Au 48.6859 27.6792 39.5604
Au 48.6868 0.0417 14.9305
Au 48.6920 76.1698 6.7165
Au 48.6946 60.1656 25.4478
Au 48.7015 78.9728 0.2331
Au 48.7034 28.6754 30.8286
Au 48.7041 62.9686 18.9645
Au 48.7067 46.9643 37.6958
Au 48.7090 3.7672 16.5889
Au 48.7136 65.7716 12.4811
Au 48.7162 49.7673 31.2125
Au 48.7231 68.5746 5.9978
Au 48.7256 32.4009 32.4871
Au 48.7257 52.5703 24.7292
Au 48.7312 7.4927 18.2474
Au 48.7351 55.3733 18.2458
Au 48.7377 39.3691 36.9772
Au 48.7379 30.5175 1.6215
Au 48.7446 58.1763 11.7625
Au 48.7472 42.1721 30.4938
Au 48.7478 36.1264 34.1455
Au 48.7534 11.2181 19.9058
Au 48.7541 60.9793 5.2792
Au 48.7567 44.9751 24.0105
Au 48.7601 34.2429 3.2800
Au 48.7662 47.7781 17.5272
Au 48.7756 14.9436 21.5643
Au 48.7756 50.5810 11.0439
Au 48.7823 37.9684 4.9384
Au 48.7851 53.3840 4.5606
Au 48.7978 18.6691 23.2227
Au 48.8045 41.6939 6.5969
Au 48.8200 22.3946 24.8812
Au 48.8267 45.4193 8.2553
Au 48.8422 26.1200 26.5396
Au 48.8478 1.2118 12.2999
Au 48.8644 29.8455 28.1981
Au 48.8700 4.9373 13.9583
Au 48.8866 33.5710 29.8565
Au 48.8922 8.6628 15.6168
Au 48.9088 37.2965 31.5149
Au 48.9144 12.3882 17.2752
Au 48.9211 35.4130 0.6494
Au 48.9269 74.7173 39.4346
Au 48.9363 77.5203 32.9513
Au 48.9366 16.1137 18.9337
Au 48.9433 39.1385 2.3078
Au 48.9579 67.1220 38.7160
Au 48.9588 19.8392 20.5921
Au 48.9655 42.8640 3.9663
Au 48.9674 69.9250 32.2326
Au 48.9743 0.5399 38.8764
Au 48.9768 72.7280 25.7493
Au 48.9810 23.5646 22.2506
Au 48.9863 75.5310 19.2660
Au 48.9877 46.5894 5.6247
Au 48.9889 59.5268 37.9973
Au 48.9958 78.3340 12.7827
Au 48.9984 62.3298 31.5140
Au 49.0032 27.2901 23.9090
Au 49.0079 65.1328 25.0307
Au 49.0088 2.3819 9.6693
Au 49.0173 67.9358 18.5474
Au 49.0199 51.9315 37.2787
Au 49.0254 31.0156 25.5675
Au 49.0268 70.7388 12.0641
Au 49.0294 54.7345 30.7954
Au 49.0310 6.1074 11.3277
Au 49.0363 73.5417 5.5807
Au 49.0389 57.5375 24.3121
Au 49.0476 34.7411 27.2259
Au 49.0484 60.3405 17.8288
Au 49.0510 44.3363 36.5601
Au 49.0532 9.8328 12.9862
Au 49.0578 63.1435 11.3454
Au 49.0604 47.1393 30.0768
Au 49.0673 65.9465 4.8621
Au 49.0698 38.4665 28.8843
Au 49.0699 49.9423 23.5934
Au 49.0754 13.5583 14.6446
Au 49.0794 52.7452 17.1101
Au 49.0889 55.5482 10.6268
Au 49.0976 17.2838 16.3031
Au 49.0983 58.3512 4.1435
Au 49.1198 21.0093 17.9615
Au 49.1265 44.0340 1.3357
Au 49.1353 1.7100 36.2458
Au 49.1420 24.7347 19.6200
Au 49.1487 47.7595 2.9941
Au 49.1575 5.4354 37.9043
Au 49.1642 28.4602 21.2784
Au 49.1698 3.5520 7.0387
Au 49.1797 9.1609 39.5627
Au 49.1864 32.1857 22.9369
Au 49.1920 7.2775 8.6972
Au 49.2086 35.9112 24.5953
Au 49.2142 11.0029 10.3556
Au 49.2308 39.6366 26.2538
Au 49.2364 14.7284 12.0140
Au 49.2401 79.6845 39.0175
Au 49.2586 18.4539 13.6725
Au 49.2711 72.0892 38.2989
Au 49.2806 74.8922 31.8156
Au 49.2808 22.1793 15.3309
Au 49.2901 77.6952 25.3322
Au 49.2963 2.8800 33.6152
Au 49.3021 64.4940 37.5802
Au 49.3030 25.9048 16.9894
Au 49.3087 0.9966 2.7497
Au 49.3097 48.9296 0.3635
Au 49.3116 67.2970 31.0969
Au 49.3185 6.6055 35.2737
Au 49.3211 70.1000 24.6136
Au 49.3252 29.6303 18.6478
Au 49.3306 72.9030 18.1303
Au 49.3308 4.7221 4.4081
Au 49.3332 56.8987 36.8616
Au 49.3400 75.7060 11.6470
Au 49.3407 10.3310 36.9321
Au 49.3426 59.7017 30.3783
Au 49.3474 33.3558 20.3063
Au 49.3495 78.5089 5.1637
Au 49.3521 62.5047 23.8950
Au 49.3530 8.4475 6.0666
Au 49.3616 65.3077 17.4117
Au 49.3642 49.3035 36.1430
Au 49.3696 37.0812 21.9647
Au 49.3711 68.1107 10.9284
Au 49.3737 52.1065 29.6597
Au 49.3752 12.1730 7.7250
Au 49.3806 70.9137 4.4450
Au 49.3832 54.9095 23.1764
Au 49.3918 40.8067 23.6232
Au 49.3926 57.7124 16.6930
Au 49.3952 41.7082 35.4244
Au 49.3974 15.8985 9.3835
Au 49.4021 60.5154 10.2097
Au 49.4047 44.5112 28.9410
Au 49.4116 63.3184 3.7264
Au 49.4142 47.3142 22.4577
Au 49.4196 19.6240 11.0419
Au 49.4237 50.1172 15.9744
Au 49.4331 52.9202 9.4911
Au 49.4351 0.3247 29.3262
Au 49.4418 23.3494 12.7003
Au 49.4426 55.7232 3.0078
Au 49.4573 4.0501 30.9846
Au 49.4640 27.0749 14.3588
Au 49.4697 2.1667 0.1191
Au 49.4795 7.7756 32.6431
Au 49.4862 30.8004 16.0172
Au 49.4919 5.8922 1.7775
Au 49.5017 11.5011 34.3015
Au 49.5084 34.5259 17.6757
Au 49.5140 9.6176 3.4360
Au 49.5239 15.2265 35.9600
Au 49.5306 38.2513 19.3341
Au 49.5362 13.3431 5.0944
Au 49.5461 18.9520 37.6184
Au 49.5528 41.9768 20.9926
Au 49.5584 17.0686 6.7529
Au 49.5683 22.6775 39.2769
Au 49.5806 20.7940 8.4113
Au 49.5843 77.0564 37.8818
Au 49.5938 79.8594 31.3985
Au 49.5961 1.4947 26.6956
Au 49.6028 24.5195 10.0697
Au 49.6154 69.4612 37.1632
Au 49.6183 5.2202 28.3540
Au 49.6249 72.2642 30.6798
Au 49.6250 28.2450 11.7282
Au 49.6343 75.0672 24.1965
Au 49.6405 8.9457 30.0125
Au 49.6438 77.8702 17.7132
Au 49.6464 61.8659 36.4445
Au 49.6472 31.9705 13.3866
Au 49.6559 64.6689 29.9612
Au 49.6627 12.6712 31.6709
Au 49.6654 67.4719 23.4779
Au 49.6694 35.6959 15.0451
Au 49.6748 70.2749 16.9946
Au 49.6750 10.7877 0.8054
Au 49.6774 54.2707 35.7259
Au 49.6843 73.0779 10.5113
Au 49.6849 16.3966 33.3294
Au 49.6869 57.0737 29.2426
Au 49.6916 39.4214 16.7035
Au 49.6938 75.8809 4.0280
Au 49.6964 59.8766 22.7593
Au 49.6972 14.5132 2.4638
Au 49.7059 62.6796 16.2760
Au 49.7071 20.1221 34.9878
Au 49.7085 46.6754 35.0073
Au 49.7138 43.1469 18.3620
Au 49.7153 65.4826 9.7926
Au 49.7179 49.4784 28.5240
Au 49.7194 18.2387 4.1223
Au 49.7248 68.2856 3.3093
Au 49.7274 52.2814 22.0406
Au 49.7293 23.8476 36.6463
Au 49.7369 55.0844 15.5573
Au 49.7416 21.9641 5.7807
Au 49.7464 57.8874 9.0740
Au 49.7558 60.6904 2.5907
Au 49.7571 2.6648 24.0650
Au 49.7584 44.6861 21.3220
Au 49.7638 25.6896 7.4392
Au 49.7737 31.2985 39.9632
Au 49.7774 50.2921 8.3554
Au 49.7793 6.3903 25.7234
Au 49.7860 29.4151 9.0976
Au 49.7869 53.0951 1.8721
Au 49.8015 10.1158 27.3819
Au 49.8082 33.1406 10.7560
Au 49.8237 13.8412 29.0403
Au 49.8304 36.8660 12.4145
Au 49.8459 17.5667 30.6988
Au 49.8526 40.5915 14.0729
Au 49.8681 21.2922 32.3572
Au 49.8748 44.3170 15.7314
Au 49.8804 19.4087 1.4917
Au 49.8903 25.0177 34.0157
Au 49.8959 0.1094 19.7760
Au 49.9026 23.1342 3.1501
Au 49.9125 28.7431 35.6741
Au 49.9181 3.8349 21.4344
Au 49.9248 26.8597 4.8086
Au 49.9286 74.4284 36.7461
Au 49.9347 32.4686 37.3326
Au 49.9381 77.2314 30.2628
Au 49.9403 7.5604 23.0928
Au 49.9470 30.5852 6.4670
Au 49.9569 36.1941 38.9910
Au 49.9596 66.8331 36.0274
Au 49.9625 11.2859 24.7513
Au 49.9691 69.6361 29.5441
Au 49.9692 34.3106 8.1255
Au 49.9786 72.4391 23.0608
Au 49.9847 15.0113 26.4097
Au 49.9881 75.2421 16.5775
Au 49.9907 59.2379 35.3088
Au 49.9914 38.0361 9.7839
Au 49.9975 78.0451 10.0942
Au 50.0001 62.0409 28.8255
Au 50.0069 18.7368 28.0682
Au 50.0096 64.8438 22.3422
Au 50.0136 41.7616 11.4423
Au 50.0191 67.6468 15.8589
Au 50.0217 51.6426 34.5902
Au 50.0286 70.4498 9.3756
Au 50.0291 22.4623 29.7266
Au 50.0312 54.4456 28.1069
Au 50.0358 45.4871 13.1008
Au 50.0380 73.2528 2.8922
Au 50.0406 57.2486 21.6236
Au 50.0501 60.0516 15.1402
Au 50.0513 26.1877 31.3851
Au 50.0527 44.0473 33.8716
Au 50.0569 1.2795 17.1454
Au 50.0596 62.8546 8.6569
Au 50.0622 46.8503 27.3883
Au 50.0636 24.3043 0.5195
Au 50.0691 65.6576 2.1736
Au 50.0717 49.6533 20.9049
Au 50.0735 29.9132 33.0435
Au 50.0791 5.0050 18.8038
Au 50.0811 52.4563 14.4216
Au 50.0858 28.0298 2.1780
Au 50.0906 55.2593 7.9383
Au 50.0957 33.6387 34.7020
Au 50.1001 58.0623 1.4550
Au 50.1013 8.7305 20.4623
Au 50.1080 31.7552 3.8364
Au 50.1179 37.3642 36.3604
Au 50.1235 12.4559 22.1207
Au 50.1302 35.4807 5.4949
Au 50.1457 16.1814 23.7791
Au 50.1524 39.2062 7.1533
Au 50.1679 19.9069 25.4376
Au 50.1746 42.9317 8.8118
Au 50.1901 23.6324 27.0960
Au 50.1968 46.6571 10.4702
Au 50.2123 27.3578 28.7545
Au 50.2180 2.4496 14.5148
Au 50.2345 31.0833 30.4129
Au 50.2401 6.1751 16.1732
Au 50.2418 79.3956 36.3290
Au 50.2567 34.8088 32.0714
Au 50.2623 9.9006 17.8317
Au 50.2690 32.9253 1.2058
Au 50.2729 71.8003 35.6104
Au 50.2789 38.5343 33.7298
Au 50.2823 74.6033 29.1270
Au 50.2845 13.6260 19.4901
Au 50.2912 36.6508 2.8643
Au 50.2918 77.4063 22.6437
Au 50.3039 64.2051 34.8917
Au 50.3067 17.3515 21.1486
Au 50.3134 67.0080 28.4084
Au 50.3134 40.3763 4.5227
Au 50.3228 69.8110 21.9251
Au 50.3289 21.0770 22.8070
Au 50.3323 72.6140 15.4418
Au 50.3349 56.6098 34.1731
Au 50.3356 44.1018 6.1812
Au 50.3418 75.4170 8.9585
Au 50.3444 59.4128 27.6898
Au 50.3511 24.8024 24.4654
Au 50.3513 78.2200 2.4752
Au 50.3539 62.2158 21.2065
Au 50.3565 46.2115 39.9378
Au 50.3578 47.8272 7.8396
Au 50.3634 65.0188 14.7232
Au 50.3660 49.0145 33.4545
Au 50.3728 67.8218 8.2398
Au 50.3733 28.5279 26.1239
Au 50.3754 51.8175 26.9712
Au 50.3790 3.6197 11.8842
Au 50.3823 70.6248 1.7565
Au 50.3849 54.6205 20.4879
Au 50.3875 38.6163 39.2192
Au 50.3944 57.4235 14.0045
Au 50.3955 32.2534 27.7823
Au 50.3970 41.4193 32.7359
Au 50.4011 7.3452 13.5426
Au 50.4039 60.2265 7.5212
Au 50.4065 44.2223 26.2525
Au 50.4133 63.0295 1.0379
Au 50.4159 47.0253 19.7692
Au 50.4177 35.9789 29.4408
Au 50.4233 11.0706 15.2011
Au 50.4254 49.8283 13.2859
Au 50.4349 52.6313 6.8026
Au 50.4399 39.7043 31.0992
Au 50.4444 55.4343 0.3193
Au 50.4455 14.7961 16.8595
Au 50.4522 37.8209 0.2337
Au 50.4677 18.5216 18.5180
Au 50.4744 41.5464 1.8921
Au 50.4899 22.2471 20.1764
Au 50.4966 45.2718 3.5506
Au 50.5054 2.9478 38.4607
Au 50.5121 25.9725 21.8349
Au 50.5178 1.0643 7.5951
Au 50.5188 48.9973 5.2090
Au 50.5343 29.6980 23.4933
Au 50.5400 4.7898 9.2536
Au 50.5565 33.4235 25.1517
Au 50.5622 8.5153 10.9120
Au 50.5787 37.1490 26.8102
Au 50.5843 12.2407 12.5705
Au 50.5861 76.7675 35.1933
Au 50.5956 79.5705 28.7100
Au 50.6009 40.8744 28.4686
Au 50.6065 15.9662 14.2289
Au 50.6171 69.1723 34.4747
Au 50.6266 71.9752 27.9913
Au 50.6287 19.6917 15.8874
Au 50.6361 74.7782 21.5080
Au 50.6442 0.3924 34.1717
Au 50.6456 77.5812 15.0247
Au 50.6482 61.5770 33.7560
Au 50.6509 23.4171 17.5458
Au 50.6576 46.4419 0.9200
Au 50.6576 64.3800 27.2727
Au 50.6664 4.1178 35.8301
Au 50.6671 67.1830 20.7894
Au 50.6697 51.1787 39.5207
Au 50.6731 27.1426 19.2043
Au 50.6766 69.9860 14.3061
Au 50.6788 2.2344 4.9645
Au 50.6792 53.9817 33.0374
Au 50.6798 50.1674 2.5784
Au 50.6861 72.7890 7.8228
Au 50.6886 7.8433 37.4885
Au 50.6887 56.7847 26.5541
Au 50.6953 30.8681 20.8627
Au 50.6955 75.5920 1.3394
Au 50.6981 59.5877 20.0708
Au 50.7007 43.5835 38.8021
Au 50.7010 5.9599 6.6230
Au 50.7076 62.3907 13.5875
Au 50.7102 46.3865 32.3188
Au 50.7108 11.5688 39.1470
Au 50.7171 65.1937 7.1041
Au 50.7175 34.5936 22.5211
Au 50.7197 49.1895 25.8355
Au 50.7232 9.6853 8.2814
Au 50.7266 67.9967 0.6208
Au 50.7292 51.9925 19.3521
Au 50.7386 54.7955 12.8688
Au 50.7397 38.3190 24.1796
Au 50.7453 13.4108 9.9399
Au 50.7481 57.5985 6.3855
Au 50.7619 42.0445 25.8380
Au 50.7675 17.1363 11.5983
Au 50.7897 20.8618 13.2568
Au 50.8052 1.5625 31.5411
Au 50.8119 24.5872 14.9152
Au 50.8274 5.2879 33.1995
Au 50.8341 28.3127 16.5737
Au 50.8398 3.4045 2.3340
Au 50.8496 9.0134 34.8580
Au 50.8563 32.0382 18.2321
Au 50.8620 7.1300 3.9924
Au 50.8718 12.7389 36.5164
Au 50.8785 35.7637 19.8906
Au 50.8842 10.8554 5.6508
Au 50.8940 16.4643 38.1748
Au 50.9007 39.4891 21.5490
Au 50.9063 14.5809 7.3093
Au 50.9162 20.1898 39.8333
Au 50.9229 43.2146 23.2074
Au 50.9285 18.3064 8.9677
Au 50.9304 74.1395 34.0576
Au 50.9398 76.9424 27.5743
Au 50.9493 79.7454 21.0909
Au 50.9507 22.0318 10.6262
Au 50.9519 63.7412 39.8223
Au 50.9614 66.5442 33.3389
Au 50.9662 2.7325 28.9105
Au 50.9709 69.3472 26.8556
Au 50.9729 25.7573 12.2846
Au 50.9803 72.1502 20.3723
Au 50.9829 56.1459 39.1036
Au 50.9884 6.4580 30.5689
Au 50.9898 74.9532 13.8890
Au 50.9924 58.9489 32.6203
Au 50.9951 29.4828 13.9431
Au 50.9993 77.7562 7.4057
Au 51.0019 61.7519 26.1370
Au 51.0106 10.1835 32.2274
Au 51.0114 64.5549 19.6537
Au 51.0140 48.5507 38.3850
Au 51.0173 33.2083 15.6015
Au 51.0208 67.3579 13.1704
Au 51.0230 8.3000 1.3618
Au 51.0234 51.3537 31.9017
Au 51.0303 70.1609 6.6871
Au 51.0328 13.9090 33.8858
Au 51.0329 54.1567 25.4184
Au 51.0395 36.9337 17.2600
Au 51.0398 72.9639 0.2037
Au 51.0424 56.9597 18.9351
Au 51.0450 40.9554 37.6664
Au 51.0452 12.0255 3.0203
Au 51.0519 59.7627 12.4517
Au 51.0545 43.7584 31.1831
Au 51.0550 17.6344 35.5442
Au 51.0613 62.5657 5.9684
Au 51.0617 40.6592 18.9184
Au 51.0639 46.5614 24.6997
Au 51.0674 15.7510 4.6787
Au 51.0734 49.3644 18.2164
Au 51.0772 21.3599 37.2027
Au 51.0829 52.1674 11.7331
Au 51.0895 19.4765 6.3371
Au 51.0924 54.9704 5.2498
Au 51.0994 25.0854 38.8611
Au 51.1051 0.1771 24.6214
Au 51.1117 23.2019 7.9956
Au 51.1272 3.9026 26.2799
Au 51.1339 26.9274 9.6540
Au 51.1494 7.6281 27.9383
Au 51.1561 30.6529 11.3125
Au 51.1716 11.3536 29.5968
Au 51.1783 34.3783 12.9709
Au 51.1938 15.0790 31.2552
Au 51.2005 38.1038 14.6294
Au 51.2062 13.1956 0.3897
Au 51.2160 18.8045 32.9137
Au 51.2227 41.8293 16.2878
Au 51.2284 16.9211 2.0481
Au 51.2382 22.5300 34.5721
Au 51.2436 79.1066 33.6405
Au 51.2505 20.6465 3.7065
Au 51.2604 26.2555 36.2305
Au 51.2651 68.7084 39.4052
Au 51.2661 1.3472 21.9908
Au 51.2727 24.3720 5.3650
Au 51.2746 71.5114 32.9219
Au 51.2826 29.9809 37.8890
Au 51.2841 74.3144 26.4385
Au 51.2883 5.0727 23.6493
Au 51.2936 77.1174 19.9552
Au 51.2949 28.0975 7.0234
Au 51.2962 61.1131 38.6865
Au 51.3030 79.9204 13.4719
Au 51.3048 33.7064 39.5474
Au 51.3056 63.9161 32.2032
Au 51.3104 8.7982 25.3077
Au 51.3151 66.7191 25.7199
Au 51.3171 31.8230 8.6819
Au 51.3246 69.5221 19.2366
Au 51.3272 53.5179 37.9679
Au 51.3326 12.5237 26.9662
Au 51.3341 72.3251 12.7533
Au 51.3367 56.3209 31.4846
Au 51.3393 35.5484 10.3403
Au 51.3436 75.1281 6.2700
Au 51.3462 59.1239 25.0013
Au 51.3548 16.2491 28.6246
Au 51.3556 61.9269 18.5180
Au 51.3582 45.9226 37.2493
Au 51.3615 39.2739 11.9988
Au 51.3651 64.7299 12.0347
Au 51.3677 48.7256 30.7660
Au 51.3746 67.5329 5.5513
Au 51.3770 19.9746 30.2831
Au 51.3772 51.5286 24.2827
Au 51.3837 42.9994 13.6572
Au 51.3867 54.3316 17.7993
Au 51.3961 57.1346 11.3160
Au 51.3992 23.7001 31.9415
Au 51.4056 59.9376 4.8327
Au 51.4115 21.8166 1.0760
Au 51.4177 46.7364 17.0807
Au 51.4214 27.4255 33.6000
Au 51.4271 2.5173 19.3602
Au 51.4272 49.5394 10.5974
Au 51.4337 25.5421 2.7344
Au 51.4366 52.3423 4.1141
Au 51.4436 31.1510 35.2584
Au 51.4493 6.2428 21.0187
Au 51.4559 29.2676 4.3928
Au 51.4658 34.8765 36.9168
Au 51.4714 9.9683 22.6771
Au 51.4781 32.9930 6.0513
Au 51.4936 13.6937 24.3356
Au 51.5003 36.7185 7.7097
Au 51.5158 17.4192 25.9940
Au 51.5225 40.4440 9.3682
Au 51.5380 21.1447 27.6525
Au 51.5447 44.1695 11.0266
Au 51.5602 24.8702 29.3109
Au 51.5784 73.6756 38.9881
Au 51.5824 28.5956 30.9694
Au 51.5879 76.4786 32.5048
Au 51.5881 3.6874 16.7296
Au 51.5947 26.7122 0.1038
Au 51.5973 79.2816 26.0215
Au 51.6046 32.3211 32.6278
Au 51.6094 66.0803 38.2695
Au 51.6103 7.4129 18.3881
Au 51.6169 30.4377 1.7623
Au 51.6189 68.8833 31.7861
Au 51.6268 36.0466 34.2863
Au 51.6284 71.6863 25.3028
Au 51.6325 11.1384 20.0465
Au 51.6378 74.4893 18.8195
Au 51.6391 34.1631 3.4207
Au 51.6404 58.4851 37.5508
Au 51.6473 77.2923 12.3362
Au 51.6499 61.2881 31.0675
Au 51.6546 14.8638 21.7050
Au 51.6594 64.0911 24.5842
Au 51.6613 37.8886 5.0791
Au 51.6689 66.8941 18.1009
Au 51.6715 50.8898 36.8322
Au 51.6768 18.5893 23.3634
Au 51.6783 69.6971 11.6176
Au 51.6809 53.6928 30.3489
Au 51.6835 41.6141 6.7376
Au 51.6878 72.5001 5.1343
Au 51.6904 56.4958 23.8656
Au 51.6990 22.3148 25.0219
Au 51.6999 59.2988 17.3823
Au 51.7025 43.2946 36.1136
Au 51.7057 45.3396 8.3960
Au 51.7094 62.1018 10.8989
Au 51.7120 46.0976 29.6303
Au 51.7188 64.9048 4.4156
Au 51.7212 26.0402 26.6803
Au 51.7214 48.9006 23.1470
Au 51.7269 1.1320 12.4406
Au 51.7309 51.7036 16.6636
Au 51.7404 54.5066 10.1803
Au 51.7434 29.7657 28.3388
Au 51.7491 4.8575 14.0991
Au 51.7499 57.3095 3.6970
Au 51.7656 33.4912 29.9972
Au 51.7713 8.5830 15.7575
Au 51.7878 37.2167 31.6557
Au 51.7935 12.3084 17.4159
Au 51.8001 35.3332 0.7901
Au 51.8156 16.0339 19.0744
Au 51.8223 39.0587 2.4486
Au 51.8378 19.7594 20.7328
Au 51.8445 42.7842 4.1070
Au 51.8534 0.4601 39.0171
Au 51.8600 23.4849 22.3913
Au 51.8667 46.5096 5.7654
Au 51.8822 27.2103 24.0497
Au 51.8879 2.3021 9.8100
Au 51.8916 78.6428 38.5710
Au 51.9044 30.9358 25.7082
Au 51.9101 6.0276 11.4685
Au 51.9226 71.0475 37.8524
Au 51.9266 34.6613 27.3666
Au 51.9321 73.8505 31.3691
Au 51.9323 9.7531 13.1269
Au 51.9416 76.6535 24.8857
Au 51.9488 38.3867 29.0251
Au 51.9511 79.4565 18.4024
Au 51.9537 63.4523 37.1338
Au 51.9545 13.4785 14.7854
Au 51.9631 66.2553 30.6504
Au 51.9726 69.0583 24.1671
Au 51.9766 17.2040 16.4438
Au 51.9821 71.8613 17.6838
Au 51.9847 55.8570 36.4151
Au 51.9916 74.6643 11.2005
Au 51.9942 58.6600 29.9318
Au 51.9988 20.9295 18.1022
Au 52.0010 77.4673 4.7172
Au 52.0036 61.4630 23.4485
Au 52.0055 43.9542 1.4764
Au 52.0131 64.2660 16.9652
Au 52.0144 1.6302 36.3865
Au 52.0157 48.2618 35.6965
Au 52.0210 24.6549 19.7607
Au 52.0226 67.0690 10.4819
Au 52.0252 51.0648 29.2132
Au 52.0277 47.6797 3.1349
Au 52.0321 69.8720 3.9985
Au 52.0347 53.8678 22.7299
Au 52.0365 5.3556 38.0450
Au 52.0432 28.3804 21.4191
Au 52.0441 56.6708 16.2466
Au 52.0467 40.6665 34.9779
Au 52.0489 3.4722 7.1794
Au 52.0536 59.4737 9.7632
Au 52.0562 43.4695 28.4946
Au 52.0587 9.0811 39.7034
Au 52.0631 62.2767 3.2799
Au 52.0654 32.1059 23.0776
Au 52.0657 46.2725 22.0112
Au 52.0711 7.1977 8.8379
Au 52.0752 49.0755 15.5279
Au 52.0847 51.8785 9.0446
Au 52.0876 35.8314 24.7360
Au 52.0933 10.9231 10.4963
Au 52.0941 54.6815 2.5613
Au 52.1098 39.5568 26.3945
Au 52.1155 14.6486 12.1548
Au 52.1377 18.3741 13.8132
Au 52.1598 22.0996 15.4717
Au 52.1754 2.8002 33.7559
Au 52.1820 25.8250 17.1301
Au 52.1877 0.9168 2.8904
Au 52.1887 48.8498 0.5043
Au 52.1975 6.5257 35.4144
Au 52.2042 29.5505 18.7885
Au 52.2099 4.6423 4.5488
Au 52.2197 10.2512 37.0728
Au 52.2264 33.2760 20.4470
Au 52.2321 8.3677 6.2073
Au 52.2359 76.0147 37.4353
Au 52.2419 13.9767 38.7313
Au 52.2453 78.8177 30.9520
Au 52.2486 37.0014 22.1054
Au 52.2543 12.0932 7.8657
Au 52.2669 68.4195 36.7167
Au 52.2708 40.7269 23.7639
Au 52.2764 71.2225 30.2334
Au 52.2765 15.8187 9.5242
Au 52.2858 74.0255 23.7500
Au 52.2953 76.8285 17.2667
Au 52.2979 60.8242 35.9980
Au 52.2987 19.5442 11.1826
Au 52.3048 79.6315 10.7834
Au 52.3074 63.6272 29.5147
Au 52.3142 0.2449 29.4669
Au 52.3169 66.4302 23.0314
Au 52.3208 23.2696 12.8411
Au 52.3264 69.2332 16.5481
Au 52.3290 53.2290 35.2794
Au 52.3358 72.0362 10.0648
Au 52.3364 3.9703 31.1253
Au 52.3384 56.0320 28.7961
Au 52.3430 26.9951 14.4995
Au 52.3453 74.8392 3.5815
Au 52.3479 58.8350 22.3128
Au 52.3487 2.0869 0.2598
Au 52.3574 61.6380 15.8295
Au 52.3586 7.6958 32.7838
Au 52.3600 45.6337 34.5608
Au 52.3652 30.7206 16.1580
Au 52.3669 64.4409 9.3462
Au 52.3695 48.4367 28.0775
Au 52.3709 5.8124 1.9182
Au 52.3763 67.2439 2.8628
Au 52.3789 51.2397 21.5942
Au 52.3807 11.4213 34.4422
Au 52.3874 34.4461 17.8164
Au 52.3884 54.0427 15.1108
Au 52.3931 9.5378 3.5767
Au 52.3979 56.8457 8.6275
Au 52.4029 15.1468 36.1007
Au 52.4074 59.6487 2.1442
Au 52.4096 38.1715 19.4748
Au 52.4153 13.2633 5.2351
Au 52.4194 46.4474 14.3922
Au 52.4251 18.8722 37.7591
Au 52.4289 49.2504 7.9089
Au 52.4318 41.8970 21.1333
Au 52.4375 16.9888 6.8936
Au 52.4384 52.0534 1.4256
Au 52.4473 22.5977 39.4176
Au 52.4597 20.7143 8.5520
Au 52.4752 1.4149 26.8363
Au 52.4819 24.4397 10.2105
Au 52.4974 5.1404 28.4948
Au 52.5040 28.1652 11.8689
Au 52.5196 8.8659 30.1532
Au 52.5262 31.8907 13.5274
Au 52.5417 12.5914 31.8116
Au 52.5484 35.6161 15.1858
Au 52.5541 10.7079 0.9461
Au 52.5639 16.3168 33.4701
Au 52.5706 39.3416 16.8442
Au 52.5763 14.4334 2.6045
Au 52.5801 73.3867 36.2996
Au 52.5861 20.0423 35.1285
Au 52.5896 76.1897 29.8163
Au 52.5928 43.0671 18.5027
Au 52.5985 18.1589 4.2630
Au 52.5991 78.9927 23.3330
Au 52.6083 23.7678 36.7870
Au 52.6112 65.7914 35.5810
Au 52.6206 68.5944 29.0976
Au 52.6207 21.8843 5.9214
Au 52.6301 71.3974 22.6143
Au 52.6305 27.4933 38.4454
Au 52.6362 2.5850 24.2057
Au 52.6396 74.2004 16.1310
Au 52.6422 58.1962 34.8623
Au 52.6429 25.6098 7.5799
Au 52.6491 77.0034 9.6477
Au 52.6517 60.9992 28.3790
Au 52.6584 6.3105 25.8642
Au 52.6585 79.8064 3.1644
Au 52.6611 63.8022 21.8957
Au 52.6650 29.3353 9.2383
Au 52.6706 66.6051 15.4124
Au 52.6732 50.6009 34.1437
Au 52.6801 69.4081 8.9291
Au 52.6806 10.0360 27.5226
Au 52.6827 53.4039 27.6604
Au 52.6872 33.0608 10.8968
Au 52.6896 72.2111 2.4458
Au 52.6922 56.2069 21.1771
Au 52.6948 40.2027 39.9084
Au 52.7016 59.0099 14.6938
Au 52.7028 13.7615 29.1811
Au 52.7042 43.0057 33.4251
Au 52.7094 36.7862 12.5552
Au 52.7111 61.8129 8.2104
Au 52.7137 45.8086 26.9418
Au 52.7206 64.6159 1.7271
Au 52.7232 48.6116 20.4584
Au 52.7249 17.4869 30.8395
Au 52.7316 40.5117 14.2137
Au 52.7327 51.4146 13.9751
Au 52.7421 54.2176 7.4918
Au 52.7471 21.2124 32.4979
Au 52.7516 57.0206 1.0085
Au 52.7538 44.2372 15.8721
Au 52.7595 19.3290 1.6324
Au 52.7693 24.9379 34.1564
Au 52.7750 0.0296 19.9167
Au 52.7817 23.0544 3.2908
Au 52.7915 28.6633 35.8148
Au 52.7972 3.7551 21.5751
Au 52.8039 26.7799 4.9493
Au 52.8137 32.3888 37.4733
Au 52.8194 7.4806 23.2336
Au 52.8260 30.5054 6.6077
Au 52.8359 36.1143 39.1317
Au 52.8416 11.2061 24.8920
Au 52.8482 34.2308 8.2662
Au 52.8638 14.9315 26.5505
Au 52.8704 37.9563 9.9246
Au 52.8859 18.6570 28.2089
Au 52.8926 41.6818 11.5831
Au 52.8934 78.3539 35.8825
Au 52.9081 22.3825 29.8673
Au 52.9244 70.7586 35.1639
Au 52.9303 26.1080 31.5258
Au 52.9339 73.5616 28.6806
Au 52.9360 1.1997 17.2861
Au 52.9427 24.2245 0.6602
Au 52.9433 76.3646 22.1972
Au 52.9525 29.8334 33.1842
Au 52.9528 79.1676 15.7139
Au 52.9554 63.1634 34.4452
Au 52.9582 4.9252 18.9445
Au 52.9649 27.9500 2.3187
Au 52.9649 65.9664 27.9619
Au 52.9744 68.7694 21.4786
Au 52.9747 33.5589 34.8427
Au 52.9804 8.6507 20.6030
Au 52.9838 71.5723 14.9953
Au 52.9864 55.5681 33.7266
Au 52.9871 31.6755 3.9771
Au 52.9933 74.3753 8.5120
Au 52.9959 58.3711 27.2433
Au 52.9969 37.2844 36.5011
Au 53.0026 12.3761 22.2614
Au 53.0028 77.1783 2.0287
Au 53.0054 61.1741 20.7600
Au 53.0080 45.1699 39.4913
Au 53.0092 35.4009 5.6356
Au 53.0149 63.9771 14.2767
Au 53.0175 47.9729 33.0080
Au 53.0243 66.7801 7.7934
Au 53.0248 16.1016 23.9199
Au 53.0269 50.7758 26.5247
Au 53.0314 39.1264 7.2940
Au 53.0338 69.5831 1.3100
Au 53.0364 53.5788 20.0414
Au 53.0459 56.3818 13.5580
Au 53.0469 19.8271 25.5783
Au 53.0485 40.3776 32.2894
Au 53.0536 42.8519 8.9525
Au 53.0554 59.1848 7.0747
Au 53.0580 43.1806 25.8061
Au 53.0649 61.9878 0.5914
Au 53.0675 45.9836 19.3227
Au 53.0691 23.5526 27.2368
Au 53.0758 46.5773 10.6109
Au 53.0769 48.7866 12.8394
Au 53.0864 51.5896 6.3561
Au 53.0913 27.2780 28.8952
Au 53.0970 2.3698 14.6555
Au 53.1135 31.0035 30.5536
Au 53.1192 6.0953 16.3139
Au 53.1357 34.7290 32.2121
Au 53.1414 9.8208 17.9724
Au 53.1481 32.8455 1.3465
Au 53.1579 38.4545 33.8705
Au 53.1636 13.5462 19.6308
Au 53.1702 36.5710 3.0050
Au 53.1858 17.2717 21.2893
Au 53.1924 40.2965 4.6634
Au 53.2080 20.9972 22.9477
Au 53.2146 44.0220 6.3219
Au 53.2301 24.7227 24.6062
Au 53.2376 75.7258 34.7468
Au 53.2471 78.5288 28.2635
Au 53.2523 28.4481 26.2646
Au 53.2580 3.5399 12.0249
Au 53.2686 68.1306 34.0282
Au 53.2745 32.1736 27.9231
Au 53.2781 70.9336 27.5448
Au 53.2802 7.2654 13.6833
Au 53.2876 73.7366 21.0615
Au 53.2902 57.7323 39.7929
Au 53.2967 35.8991 29.5815
Au 53.2971 76.5395 14.5782
Au 53.2997 60.5353 33.3095
Au 53.3024 10.9908 15.3418
Au 53.3066 79.3425 8.0949
Au 53.3092 63.3383 26.8262
Au 53.3186 66.1413 20.3429
Au 53.3212 50.1371 39.0742
Au 53.3246 14.7163 17.0002
Au 53.3281 68.9443 13.8596
Au 53.3307 52.9401 32.5909
Au 53.3312 37.7411 0.3744
Au 53.3376 71.7473 7.3763
Au 53.3402 55.7430 26.1076
Au 53.3468 18.4418 18.6587
Au 53.3471 74.5503 0.8930
Au 53.3497 58.5460 19.6243
Au 53.3523 42.5418 38.3556
Au 53.3534 41.4666 2.0328
Au 53.3591 61.3490 13.1410
Au 53.3617 45.3448 31.8723
Au 53.3686 64.1520 6.6576
Au 53.3690 22.1673 20.3171
Au 53.3712 48.1478 25.3890
Au 53.3756 45.1920 3.6913
Au 53.3781 66.9550 0.1743
Au 53.3807 50.9508 18.9057
Au 53.3845 2.8680 38.6014
Au 53.3902 53.7538 12.4223
Au 53.3911 25.8927 21.9756
Au 53.3968 0.9845 7.7359
Au 53.3978 48.9175 5.3497
Au 53.3996 56.5568 5.9390
Au 53.4133 29.6182 23.6340
Au 53.4190 4.7100 9.3943
Au 53.4355 33.3437 25.2925
Au 53.4412 8.4355 11.0527
Au 53.4577 37.0692 26.9509
Au 53.4634 12.1609 12.7112
Au 53.4856 15.8864 14.3696
Au 53.5078 19.6119 16.0281
Au 53.5233 0.3126 34.3124
Au 53.5300 23.3374 17.6865
Au 53.5366 46.3621 1.0607
Au 53.5455 4.0380 35.9708
Au 53.5522 27.0628 19.3450
Au 53.5578 2.1546 5.1053
Au 53.5588 50.0876 2.7191
Au 53.5677 7.7635 37.6293
Au 53.5743 30.7883 21.0034
Au 53.5800 5.8801 6.7637
Au 53.5819 73.0978 33.6111
Au 53.5899 11.4890 39.2877
Au 53.5914 75.9008 27.1278
Au 53.5965 34.5138 22.6619
Au 53.6008 78.7037 20.6444
Au 53.6022 9.6055 8.4222
Au 53.6034 62.6995 39.3758
Au 53.6129 65.5025 32.8925
Au 53.6187 38.2392 24.3203
Au 53.6224 68.3055 26.4091
Au 53.6244 13.3310 10.0806
Au 53.6319 71.1085 19.9258
Au 53.6345 55.1043 38.6571
Au 53.6413 73.9115 13.4425
Au 53.6439 57.9072 32.1738
Au 53.6466 17.0565 11.7390
Au 53.6508 76.7145 6.9592
Au 53.6534 60.7102 25.6905
Au 53.6603 79.5175 0.4759
Au 53.6629 63.5132 19.2072
Au 53.6655 47.5090 37.9385
Au 53.6688 20.7820 13.3975
Au 53.6724 66.3162 12.7239
Au 53.6750 50.3120 31.4552
Au 53.6818 69.1192 6.2406
Au 53.6843 1.4827 31.6818
Au 53.6844 53.1150 24.9719
Au 53.6910 24.5074 15.0559
Au 53.6939 55.9180 18.4886
Au 53.6965 39.9137 37.2199
Au 53.7034 58.7210 12.0053
Au 53.7060 42.7167 30.7366
Au 53.7065 5.2081 33.3402
Au 53.7129 61.5240 5.5219
Au 53.7132 28.2329 16.7144
Au 53.7155 45.5197 24.2533
Au 53.7188 3.3247 2.4747
Au 53.7249 48.3227 17.7699
Au 53.7287 8.9336 34.9987
Au 53.7344 51.1257 11.2866
Au 53.7353 31.9584 18.3728
Au 53.7410 7.0502 4.1331
Au 53.7439 53.9287 4.8033
Au 53.7509 12.6591 36.6571
Au 53.7575 35.6839 20.0313
Au 53.7632 10.7756 5.7916
Au 53.7731 16.3846 38.3156
Au 53.7797 39.4093 21.6897
Au 53.7854 14.5011 7.4500
Au 53.7952 20.1100 39.9740
Au 53.8076 18.2266 9.1085
Au 53.8298 21.9521 10.7669
Au 53.8453 2.6527 29.0512
Au 53.8520 25.6775 12.4253
Au 53.8675 6.3782 30.7096
Au 53.8742 29.4030 14.0838
Au 53.8856 75.2620 39.6773
Au 53.8897 10.1037 32.3681
Au 53.8951 78.0650 33.1940
Au 53.8963 33.1285 15.7422
Au 53.9020 8.2202 1.5025
Au 53.9119 13.8292 34.0265
Au 53.9167 67.6667 38.9587
Au 53.9185 36.8539 17.4007
Au 53.9242 11.9457 3.1610
Au 53.9261 70.4697 32.4754
Au 53.9341 17.5546 35.6850
Au 53.9356 73.2727 25.9921
Au 53.9407 40.5794 19.0591
Au 53.9451 76.0757 19.5087
Au 53.9464 15.6712 4.8194
Au 53.9477 60.0715 38.2401
Au 53.9546 78.8787 13.0254
Au 53.9562 21.2801 37.3434
Au 53.9572 62.8744 31.7567
Au 53.9666 65.6774 25.2734
Au 53.9686 19.3967 6.4779
Au 53.9761 68.4804 18.7901
Au 53.9784 25.0056 39.0019
Au 53.9787 52.4762 37.5214
Au 53.9841 0.0974 24.7621
Au 53.9856 71.2834 12.3068
Au 53.9882 55.2792 31.0381
Au 53.9908 23.1221 8.1363
Au 53.9951 74.0864 5.8235
Au 53.9977 58.0822 24.5548
Au 54.0063 3.8228 26.4206
Au 54.0072 60.8852 18.0715
Au 54.0098 44.8809 36.8028
Au 54.0130 26.8476 9.7948
Au 54.0166 63.6882 11.5882
Au 54.0192 47.6839 30.3195
Au 54.0261 66.4912 5.1049
Au 54.0285 7.5483 28.0790
Au 54.0287 50.4869 23.8362
Au 54.0352 30.5731 11.4532
Au 54.0382 53.2899 17.3529
Au 54.0477 56.0929 10.8695
Au 54.0507 11.2738 29.7375
Au 54.0571 58.8959 4.3862
Au 54.0574 34.2986 13.1116
Au 54.0597 42.8917 23.1175
Au 54.0692 45.6947 16.6342
Au 54.0729 14.9992 31.3959
Au 54.0787 48.4977 10.1509
Au 54.0795 38.0240 14.7701
Au 54.0852 13.1158 0.5304
Au 54.0951 18.7247 33.0544
Au 54.1017 41.7495 16.4285
Au 54.1074 16.8413 2.1888
Au 54.1172 22.4502 34.7128
Au 54.1296 20.5667 3.8473
Au 54.1394 26.1757 36.3713
Au 54.1451 1.2674 22.1316
Au 54.1518 24.2922 5.5057
Au 54.1616 29.9011 38.0297
Au 54.1673 4.9929 23.7900
Au 54.1740 28.0177 7.1642
Au 54.1838 33.6266 39.6882
Au 54.1895 8.7184 25.4484
Au 54.1962 31.7432 8.8226
Au 54.2117 12.4439 27.1069
Au 54.2184 35.4686 10.4810
Au 54.2299 72.6339 38.5416
Au 54.2339 16.1693 28.7653
Au 54.2394 75.4369 32.0583
Au 54.2405 39.1941 12.1395
Au 54.2489 78.2399 25.5750
Au 54.2561 19.8948 30.4238
Au 54.2609 65.0386 37.8230
Au 54.2627 42.9196 13.7979
Au 54.2704 67.8416 31.3397
Au 54.2783 23.6203 32.0822
Au 54.2799 70.6446 24.8563
Au 54.2894 73.4476 18.3730
Au 54.2906 21.7368 1.2167
Au 54.2920 57.4434 37.1043
Au 54.2988 76.2506 11.8897
Au 54.3004 27.3458 33.7407
Au 54.3014 60.2464 30.6210
Au 54.3061 2.4375 19.5010
Au 54.3083 79.0536 5.4064
Au 54.3109 63.0494 24.1377
Au 54.3128 25.4623 2.8751
Au 54.3204 65.8524 17.6544
Au 54.3226 31.0712 35.3991
Au 54.3230 49.8481 36.3857
Au 54.3283 6.1630 21.1594
Au 54.3299 68.6554 11.1711
Au 54.3325 52.6511 29.9024
Au 54.3350 29.1878 4.5336
Au 54.3393 71.4584 4.6878
Au 54.3419 55.4541 23.4191
Au 54.3448 34.7967 37.0576
Au 54.3505 9.8885 22.8179
Au 54.3514 58.2571 16.9358
Au 54.3540 42.2529 35.6671
Au 54.3572 32.9133 6.1920
Au 54.3609 61.0601 10.4525
Au 54.3635 45.0559 29.1838
Au 54.3704 63.8631 3.9691
Au 54.3727 13.6139 24.4763
Au 54.3730 47.8589 22.7005
Au 54.3794 36.6387 7.8505
Au 54.3824 50.6619 16.2171
Au 54.3919 53.4649 9.7338
Au 54.3949 17.3394 26.1347
Au 54.4014 56.2679 3.2505
Au 54.4016 40.3642 9.5089
Au 54.4171 21.0649 27.7932
Au 54.4237 44.0897 11.1673
Au 54.4393 24.7904 29.4516
Au 54.4614 28.5158 31.1101
Au 54.4671 3.6076 16.8704
Au 54.4738 26.6324 0.2445
Au 54.4836 32.2413 32.7685
Au 54.4893 7.3331 18.5288
Au 54.4960 30.3579 1.9030
Au 54.5058 35.9668 34.4270
Au 54.5115 11.0586 20.1873
Au 54.5182 34.0833 3.5614
Au 54.5337 14.7840 21.8457
Au 54.5404 37.8088 5.2199
Au 54.5431 77.6011 38.1245
Au 54.5559 18.5095 23.5041
Au 54.5626 41.5343 6.8783
Au 54.5742 70.0058 37.4059
Au 54.5781 22.2350 25.1626
Au 54.5836 72.8088 30.9226
Au 54.5847 45.2598 8.5368
Au 54.5931 75.6118 24.4393
Au 54.6003 25.9605 26.8210
Au 54.6026 78.4148 17.9559
Au 54.6052 62.4106 36.6873
Au 54.6059 1.0522 12.5813
Au 54.6147 65.2136 30.2039
Au 54.6225 29.6859 28.4795
Au 54.6241 68.0166 23.7206
Au 54.6281 4.7777 14.2398
Au 54.6336 70.8196 17.2373
Au 54.6362 54.8153 35.9686
Au 54.6431 73.6226 10.7540
Au 54.6446 33.4114 30.1379
Au 54.6457 57.6183 29.4853
Au 54.6503 8.5032 15.8982
Au 54.6526 76.4256 4.2707
Au 54.6552 60.4213 23.0020
Au 54.6646 63.2243 16.5187
Au 54.6668 37.1369 31.7964
Au 54.6672 47.2201 35.2500
Au 54.6725 12.2286 17.5567
Au 54.6741 66.0273 10.0354
Au 54.6767 50.0231 28.7667
Au 54.6792 35.2534 0.9308
Au 54.6836 68.8303 3.5521
Au 54.6862 52.8261 22.2834
Au 54.6947 15.9541 19.2151
Au 54.6957 55.6291 15.8001
Au 54.6983 39.6248 34.5314
Au 54.7014 38.9789 2.5893
Au 54.7051 58.4321 9.3167
Au 54.7077 42.4278 28.0481
Au 54.7146 61.2351 2.8334
Au 54.7169 19.6796 20.8736
Au 54.7172 45.2308 21.5648
Au 54.7236 42.7044 4.2477
Au 54.7267 48.0338 15.0814
Au 54.7324 0.3803 39.1578
Au 54.7362 50.8368 8.5981
Au 54.7391 23.4051 22.5320
Au 54.7457 53.6398 2.1148
Au 54.7457 46.4298 5.9062
Au 54.7613 27.1305 24.1904
Au 54.7669 2.2223 9.9507
Au 54.7835 30.8560 25.8489
Au 54.7891 5.9478 11.6092
Au 54.8056 34.5815 27.5073
Au 54.8113 9.6733 13.2676
Au 54.8278 38.3070 29.1658
Au 54.8335 13.3987 14.9261
Au 54.8557 17.1242 16.5845
Au 54.8779 20.8497 18.2430
Au 54.8846 43.8745 1.6171
Au 54.8874 74.9730 36.9888
Au 54.8934 1.5504 36.5272
Au 54.8969 77.7760 30.5055
Au 54.9001 24.5752 19.9014
Au 54.9068 47.5999 3.2756
Au 54.9156 5.2758 38.1857
Au 54.9184 67.3778 36.2702
Au 54.9223 28.3006 21.5599
Au 54.9279 70.1808 29.7869
Au 54.9279 3.3924 7.3201
Au 54.9374 72.9838 23.3035
Au 54.9378 9.0013 39.8441
Au 54.9445 32.0261 23.2183
Au 54.9468 75.7868 16.8202
Au 54.9494 59.7825 35.5516
Au 54.9501 7.1179 8.9786
Au 54.9563 78.5898 10.3369
Au 54.9589 62.5855 29.0682
Au 54.9666 35.7516 24.8767
Au 54.9684 65.3885 22.5849
Au 54.9723 10.8433 10.6370
Au 54.9779 68.1915 16.1016
Au 54.9805 52.1873 34.8329
Au 54.9874 70.9945 9.6183
Au 54.9888 39.4770 26.5352
Au 54.9900 54.9903 28.3496
Au 54.9945 14.5688 12.2955
Au 54.9968 73.7975 3.1350
Au 54.9994 57.7933 21.8663
Au 55.0089 60.5963 15.3830
Au 55.0115 44.5920 34.1143
Au 55.0167 18.2943 13.9539
Au 55.0184 63.3993 8.8997
Au 55.0210 47.3950 27.6310
Au 55.0279 66.2022 2.4163
Au 55.0305 50.1980 21.1477
Au 55.0389 22.0198 15.6124
Au 55.0399 53.0010 14.6644
Au 55.0494 55.8040 8.1810
Au 55.0544 2.7205 33.8967
Au 55.0589 58.6070 1.6977
Au 55.0611 25.7452 17.2708
Au 55.0667 0.8370 3.0311
Au 55.0678 48.7700 0.6450
Au 55.0766 6.4459 35.5551
Au 55.0804 48.2087 7.4624
Au 55.0833 29.4707 18.9293
Au 55.0889 4.5625 4.6895
Au 55.0899 51.0117 0.9791
Au 55.0988 10.1714 37.2135
Au 55.1055 33.1962 20.5877
Au 55.1111 8.2880 6.3480
Au 55.1210 13.8969 38.8720
Au 55.1277 36.9217 22.2462
Au 55.1333 12.0134 8.0064
Au 55.1498 40.6471 23.9046
Au 55.1555 15.7389 9.6649
Au 55.1777 19.4644 11.3233
Au 55.1932 0.1651 29.6076
Au 55.1999 23.1898 12.9818
Au 55.2006 79.9402 36.5717
Au 55.2154 3.8905 31.2661
Au 55.2221 26.9153 14.6402
Au 55.2277 2.0071 0.4005
Au 55.2317 72.3450 35.8531
Au 55.2376 7.6160 32.9245
Au 55.2411 75.1480 29.3698
Au 55.2443 30.6408 16.2987
Au 55.2499 5.7326 2.0590
Au 55.2506 77.9510 22.8865
Au 55.2598 11.3415 34.5830
Au 55.2627 64.7497 35.1345
Au 55.2665 34.3663 17.9571
Au 55.2721 9.4580 3.7174
Au 55.2722 67.5527 28.6512
Au 55.2816 70.3557 22.1678
Au 55.2820 15.0670 36.2414
Au 55.2887 38.0917 19.6156
Au 55.2911 73.1587 15.6845
Au 55.2937 57.1545 34.4158
Au 55.2943 13.1835 5.3758
Au 55.3006 75.9617 9.2012
Au 55.3032 59.9575 27.9325
Au 55.3042 18.7924 37.8998
Au 55.3101 78.7647 2.7179
Au 55.3108 41.8172 21.2740
Au 55.3127 62.7605 21.4492
Au 55.3165 16.9090 7.0343
Au 55.3221 65.5635 14.9659
Au 55.3247 49.5592 33.6972
Au 55.3264 22.5179 39.5583
Au 55.3316 68.3665 8.4826
Au 55.3342 52.3622 27.2139
Au 55.3387 20.6345 8.6927
Au 55.3411 71.1694 1.9993
Au 55.3437 55.1652 20.7306
Au 55.3463 39.1610 39.4619
Au 55.3532 57.9682 14.2473
Au 55.3542 1.3352 26.9770
Au 55.3558 41.9640 32.9786
Au 55.3609 24.3599 10.3512
Au 55.3626 60.7712 7.7640
Au 55.3652 44.7670 26.4953
Au 55.3721 63.5742 1.2806
Au 55.3747 47.5700 20.0120
Au 55.3764 5.0606 28.6355
Au 55.3831 28.0854 12.0096
Au 55.3842 50.3729 13.5286
Au 55.3937 53.1759 7.0453
Au 55.3986 8.7861 30.2939
Au 55.4031 55.9789 0.5620
Au 55.4053 31.8109 13.6681
Au 55.4208 12.5116 31.9524
Au 55.4275 35.5364 15.3265
Au 55.4331 10.6281 1.0868
Au 55.4430 16.2370 33.6108
Au 55.4497 39.2618 16.9850
Au 55.4553 14.3536 2.7453
Au 55.4652 19.9625 35.2693
Au 55.4719 42.9873 18.6434
Au 55.4775 18.0791 4.4037
Au 55.4874 23.6880 36.9277
Au 55.4997 21.8045 6.0621
Au 55.5096 27.4135 38.5861
Au 55.5152 2.5052 24.3464
Au 55.5219 25.5300 7.7206
Au 55.5374 6.2307 26.0049
Au 55.5441 29.2555 9.3790
Au 55.5449 77.3122 35.4360
Au 55.5596 9.9562 27.6633
Au 55.5663 32.9810 11.0375
Au 55.5759 69.7169 34.7174
Au 55.5818 13.6817 29.3218
Au 55.5854 72.5199 28.2341
Au 55.5885 36.7064 12.6959
Au 55.5949 75.3229 21.7508
Au 55.6040 17.4071 30.9802
Au 55.6043 78.1259 15.2674
Au 55.6069 62.1217 33.9988
Au 55.6107 40.4319 14.3544
Au 55.6163 15.5237 0.1147
Au 55.6164 64.9247 27.5154
Au 55.6259 67.7277 21.0321
Au 55.6262 21.1326 32.6387
Au 55.6285 51.7234 39.7634
Au 55.6329 44.1574 16.0128
Au 55.6354 70.5307 14.5488
Au 55.6380 54.5264 33.2801
Au 55.6385 19.2492 1.7731
Au 55.6448 73.3337 8.0655
Au 55.6474 57.3294 26.7968
Au 55.6484 24.8581 34.2971
Au 55.6543 76.1366 1.5822
Au 55.6569 60.1324 20.3135
Au 55.6595 44.1282 39.0448
Au 55.6607 22.9746 3.4316
Au 55.6664 62.9354 13.8302
Au 55.6690 46.9312 32.5615
Au 55.6706 28.5836 35.9556
Au 55.6759 65.7384 7.3469
Au 55.6762 3.6753 21.7158
Au 55.6785 49.7342 26.0782
Au 55.6829 26.7001 5.0900
Au 55.6853 68.5414 0.8636
Au 55.6879 52.5372 19.5949
Au 55.6928 32.3090 37.6140
Au 55.6974 55.3401 13.1116
Au 55.6984 7.4008 23.3743
Au 55.7000 39.3359 31.8429
Au 55.7051 30.4256 6.7484
Au 55.7069 58.1431 6.6282
Au 55.7095 42.1389 25.3596
Au 55.7149 36.0345 39.2724
Au 55.7164 60.9461 0.1449
Au 55.7190 44.9419 18.8762
Au 55.7206 11.1263 25.0327
Au 55.7273 34.1511 8.4069
Au 55.7285 47.7449 12.3929
Au 55.7379 50.5479 5.9096
Au 55.7428 14.8517 26.6912
Au 55.7495 37.8765 10.0653
Au 55.7650 18.5772 28.3496
Au 55.7717 41.6020 11.7238
Au 55.7872 22.3027 30.0081
Au 55.7939 45.3275 13.3822
Au 55.8094 26.0282 31.6665
Au 55.8150 1.1199 17.4268
Au 55.8217 24.1447 0.8010
Au 55.8316 29.7536 33.3250
Au 55.8372 4.8454 19.0852
Au 55.8439 27.8702 2.4594
Au 55.8538 33.4791 34.9834
Au 55.8594 8.5709 20.7437
Au 55.8661 31.5957 4.1179
Au 55.8816 12.2964 22.4021
Au 55.8883 35.3211 5.7763
Au 55.8891 74.6841 34.3003
Au 55.8986 77.4871 27.8170
Au 55.9038 16.0218 24.0606
Au 55.9105 39.0466 7.4347
Au 55.9202 67.0889 33.5817
Au 55.9260 19.7473 25.7190
Au 55.9296 69.8919 27.0984
Au 55.9327 42.7721 9.0932
Au 55.9391 72.6949 20.6150
Au 55.9417 56.6906 39.3464
Au 55.9482 23.4728 27.3775
Au 55.9486 75.4979 14.1317
Au 55.9512 59.4936 32.8630
Au 55.9549 46.4976 10.7516
Au 55.9581 78.3008 7.6484
Au 55.9607 62.2966 26.3797
Au 55.9702 65.0996 19.8964
Au 55.9704 27.1983 29.0359
Au 55.9728 49.0954 38.6277
Au 55.9760 2.2900 14.7962
Au 55.9796 67.9026 13.4131
Au 55.9822 51.8984 32.1444
Au 55.9891 70.7056 6.9298
Au 55.9917 54.7014 25.6611
Au 55.9926 30.9237 30.6944
Au 55.9982 6.0155 16.4547
Au 55.9986 73.5086 0.4465
Au 56.0012 57.5043 19.1778
Au 56.0038 41.5001 37.9091
Au 56.0107 60.3073 12.6945
Au 56.0133 44.3031 31.4258
Au 56.0148 34.6492 32.3528
Au 56.0201 63.1103 6.2112
Au 56.0204 9.7410 18.1131
Au 56.0227 47.1061 24.9425
Au 56.0271 32.7657 1.4873
Au 56.0322 49.9091 18.4592
Au 56.0417 52.7121 11.9758
Au 56.0426 13.4664 19.7715
Au 56.0493 36.4912 3.1457
Au 56.0512 55.5151 5.4925
Au 56.0648 17.1919 21.4300
Au 56.0715 40.2167 4.8041
Au 56.0870 20.9174 23.0884
Au 56.0937 43.9422 6.4626
Au 56.1092 24.6429 24.7469
Au 56.1314 28.3683 26.4053
Au 56.1370 3.4601 12.1656
Au 56.1536 32.0938 28.0638
Au 56.1592 7.1856 13.8241
Au 56.1758 35.8193 29.7222
Au 56.1814 10.9111 15.4825
Au 56.2024 79.6513 33.8832
Au 56.2036 14.6365 17.1410
Au 56.2103 37.6613 0.5151
Au 56.2239 69.2531 39.6479
Au 56.2258 18.3620 18.7994
Au 56.2325 41.3868 2.1736
Au 56.2334 72.0561 33.1646
Au 56.2429 74.8591 26.6813
Au 56.2480 22.0875 20.4578
Au 56.2524 77.6621 20.1980
Au 56.2547 45.1123 3.8320
Au 56.2550 61.6578 38.9293
Au 56.2635 2.7882 38.7421
Au 56.2644 64.4608 32.4460
Au 56.2702 25.8129 22.1163
Au 56.2739 67.2638 25.9626
Au 56.2758 0.9047 7.8766
Au 56.2834 70.0668 19.4793
Au 56.2860 54.0626 38.2107
Au 56.2924 29.5384 23.7747
Au 56.2929 72.8698 12.9960
Au 56.2955 56.8656 31.7273
Au 56.2980 4.6302 9.5350
Au 56.3023 75.6728 6.5127
Au 56.3049 59.6686 25.2440
Au 56.3118 78.4758 0.0294
Au 56.3144 62.4715 18.7607
Au 56.3146 33.2639 25.4332
Au 56.3170 46.4673 37.4920
Au 56.3202 8.3557 11.1935
Au 56.3239 65.2745 12.2774
Au 56.3265 49.2703 31.0087
Au 56.3334 68.0775 5.7941
Au 56.3360 52.0733 24.5254
Au 56.3368 36.9894 27.0916
Au 56.3424 12.0811 12.8519
Au 56.3454 54.8763 18.0421
Au 56.3480 38.8721 36.7734
Au 56.3549 57.6793 11.5588
Au 56.3575 41.6750 30.2901
Au 56.3644 60.4823 5.0754
Au 56.3646 15.8066 14.5104
Au 56.3670 44.4780 23.8068
Au 56.3765 47.2810 17.3235
Au 56.3859 50.0840 10.8401
Au 56.3868 19.5321 16.1688
Au 56.3954 52.8870 4.3568
Au 56.4023 0.2328 34.4531
Au 56.4090 23.2576 17.8272
Au 56.4157 46.2823 1.2014
Au 56.4245 3.9583 36.1115
Au 56.4312 26.9830 19.4857
Au 56.4369 2.0748 5.2460
Au 56.4467 7.6837 37.7700
Au 56.4534 30.7085 21.1441
Au 56.4590 5.8003 6.9044
Au 56.4689 11.4092 39.4284
Au 56.4756 34.4340 22.8026
Au 56.4812 9.5258 8.5629
Au 56.4978 38.1595 24.4610
Au 56.5034 13.2512 10.2213
Au 56.5256 16.9767 11.8798
Au 56.5372 74.2203 39.2308
Au 56.5466 77.0233 32.7475
Au 56.5478 20.7022 13.5382
Au 56.5561 79.8263 26.2642
Au 56.5633 1.4029 31.8225
Au 56.5682 66.6250 38.5122
Au 56.5700 24.4276 15.1967
Au 56.5777 69.4280 32.0289
Au 56.5855 5.1283 33.4809
Au 56.5871 72.2310 25.5456
Au 56.5922 28.1531 16.8551
Au 56.5966 75.0340 19.0622
Au 56.5979 3.2449 2.6154
Au 56.5992 59.0298 37.7936
Au 56.6061 77.8370 12.5789
Au 56.6077 8.8538 35.1394
Au 56.6087 61.8328 31.3103
Au 56.6144 31.8786 18.5135
Au 56.6182 64.6357 24.8269
Au 56.6200 6.9704 4.2738
Au 56.6276 67.4387 18.3436
Au 56.6299 12.5793 36.7978
Au 56.6302 51.4345 37.0749
Au 56.6366 35.6041 20.1720
Au 56.6371 70.2417 11.8603
Au 56.6397 54.2375 30.5916
Au 56.6422 10.6958 5.9323
Au 56.6466 73.0447 5.3770
Au 56.6492 57.0405 24.1083
Au 56.6521 16.3048 38.4563
Au 56.6587 59.8435 17.6250
Au 56.6588 39.3295 21.8304
Au 56.6613 43.8392 36.3563
Au 56.6644 14.4213 7.5907
Au 56.6681 62.6465 11.1417
Au 56.6707 46.6422 29.8730
Au 56.6776 65.4495 4.6584
Au 56.6802 49.4452 23.3897
Au 56.6866 18.1468 9.2492
Au 56.6897 52.2482 16.9064
Au 56.6992 55.0512 10.4231
Au 56.7087 57.8542 3.9397
Au 56.7088 21.8723 10.9076
Au 56.7243 2.5730 29.1919
Au 56.7310 25.5977 12.5661
Au 56.7397 50.2590 3.2211
Au 56.7465 6.2984 30.8503
Au 56.7532 29.3232 14.2245
Au 56.7687 10.0239 32.5088
Au 56.7754 33.0487 15.8830
Au 56.7810 8.1405 1.6432
Au 56.7909 13.7494 34.1672
Au 56.7976 36.7742 17.5414
Au 56.8032 11.8659 3.3017
Au 56.8131 17.4748 35.8257
Au 56.8198 40.4996 19.1998
Au 56.8254 15.5914 4.9601
Au 56.8353 21.2003 37.4841
Au 56.8476 19.3169 6.6186
Au 56.8504 79.1875 38.8137
Au 56.8575 24.9258 39.1426
Au 56.8631 0.0176 24.9029
Au 56.8698 23.0423 8.2770
Au 56.8814 71.5922 38.0951
Au 56.8853 3.7430 26.5613
Au 56.8909 74.3952 31.6118
Au 56.8920 26.7678 9.9355
Au 56.9004 77.1982 25.1285
Au 56.9075 7.4685 28.2198
Au 56.9124 63.9970 37.3765
Au 56.9142 30.4933 11.5939
Au 56.9219 66.8000 30.8932
Au 56.9297 11.1940 29.8782
Au 56.9314 69.6029 24.4099
Au 56.9364 34.2188 13.2524
Au 56.9409 72.4059 17.9265
Au 56.9435 56.4017 36.6579
Au 56.9504 75.2089 11.4432
Au 56.9519 14.9195 31.5366
Au 56.9530 59.2047 30.1745
Au 56.9586 37.9442 14.9108
Au 56.9598 78.0119 4.9599
Au 56.9624 62.0077 23.6912
Au 56.9642 13.0360 0.6711
Au 56.9719 64.8107 17.2079
Au 56.9741 18.6449 33.1951
Au 56.9745 48.8064 35.9392
Au 56.9808 41.6697 16.5693
Au 56.9814 67.6137 10.7246
Au 56.9840 51.6094 29.4559
Au 56.9864 16.7615 2.3295
Au 56.9909 70.4167 4.2413
Au 56.9935 54.4124 22.9726
Au 56.9963 22.3704 34.8535
Au 57.0029 57.2154 16.4893
Au 57.0055 41.2112 35.2206
Au 57.0086 20.4870 3.9880
Au 57.0124 60.0184 10.0060
Au 57.0150 44.0142 28.7373
Au 57.0185 26.0959 36.5120
Au 57.0219 62.8214 3.5227
Au 57.0241 1.1877 22.2723
Au 57.0245 46.8172 22.2540
Au 57.0308 24.2124 5.6464
Au 57.0340 49.6202 15.7707
Au 57.0407 29.8213 38.1704
Au 57.0434 52.4232 9.2873
Au 57.0463 4.9131 23.9307
Au 57.0529 55.2262 2.8040
Au 57.0530 27.9379 7.3049
Au 57.0629 33.5468 39.8289
Au 57.0685 8.6386 25.5892
Au 57.0752 31.6634 8.9633
Au 57.0907 12.3641 27.2476
Au 57.0974 35.3888 10.6218
Au 57.1129 16.0895 28.9061
Au 57.1196 39.1143 12.2802
Au 57.1351 19.8150 30.5645
Au 57.1418 42.8398 13.9387
Au 57.1573 23.5405 32.2229
Au 57.1696 21.6570 1.3574
Au 57.1795 27.2660 33.8814
Au 57.1851 2.3577 19.6417
Au 57.1918 25.3825 3.0158
Au 57.1947 76.5594 37.6780
Au 57.2017 30.9914 35.5398
Au 57.2041 79.3624 31.1947
Au 57.2073 6.0832 21.3001
Au 57.2140 29.1080 4.6743
Au 57.2239 34.7169 37.1983
Au 57.2257 68.9642 36.9594
Au 57.2295 9.8087 22.9586
Au 57.2352 71.7671 30.4761
Au 57.2362 32.8335 6.3327
Au 57.2446 74.5701 23.9928
Au 57.2517 13.5342 24.6170
Au 57.2541 77.3731 17.5095
Au 57.2567 61.3689 36.2408
Au 57.2584 36.5589 7.9912
Au 57.2662 64.1719 29.7575
Au 57.2739 17.2596 26.2755
Au 57.2757 66.9749 23.2741
Au 57.2806 40.2844 9.6496
Au 57.2851 69.7779 16.7908
Au 57.2877 53.7736 35.5221
Au 57.2946 72.5809 10.3075
Au 57.2961 20.9851 27.9339
Au 57.2972 56.5766 29.0388
Au 57.3028 44.0099 11.3081
Au 57.3041 75.3839 3.8242
Au 57.3067 59.3796 22.5555
Au 57.3162 62.1826 16.0722
Au 57.3183 24.7106 29.5924
Au 57.3188 46.1784 34.8035
Au 57.3256 64.9856 9.5889
Au 57.3282 48.9814 28.3202
Au 57.3351 67.7886 3.1056
Au 57.3377 51.7844 21.8369
Au 57.3405 28.4360 31.2508
Au 57.3461 3.5278 17.0111
Au 57.3472 54.5874 15.3536
Au 57.3498 38.5831 34.0849
Au 57.3528 26.5526 0.3852
Au 57.3567 57.3904 8.8703
Au 57.3593 41.3861 27.6016
Au 57.3627 32.1615 32.9092
Au 57.3661 60.1934 2.3869
Au 57.3683 7.2533 18.6695
Au 57.3687 44.1891 21.1183
Au 57.3750 30.2781 2.0437
Au 57.3782 46.9921 14.6349
Au 57.3849 35.8870 34.5677
Au 57.3877 49.7951 8.1516
Au 57.3905 10.9788 20.3280
Au 57.3972 52.5981 1.6683
Au 57.3972 34.0035 3.7021
Au 57.4127 14.7042 21.9864
Au 57.4194 37.7290 5.3606
Au 57.4349 18.4297 23.6449
Au 57.4416 41.4545 7.0190
Au 57.4571 22.1552 25.3033
Au 57.4638 45.1800 8.6775
Au 57.4793 25.8807 26.9618
Au 57.4850 0.9724 12.7220
Au 57.5015 29.6061 28.6202
Au 57.5072 4.6979 14.3805
Au 57.5237 33.3316 30.2786
Au 57.5293 8.4234 16.0389
Au 57.5389 73.9314 36.5423
Au 57.5459 37.0571 31.9371
Au 57.5484 76.7343 30.0590
Au 57.5515 12.1489 17.6974
Au 57.5579 79.5373 23.5757
Au 57.5582 35.1736 1.0715
Au 57.5699 66.3361 35.8237
Au 57.5737 15.8743 19.3558
Au 57.5794 69.1391 29.3404
Au 57.5804 38.8991 2.7300
Au 57.5889 71.9421 22.8571
Au 57.5959 19.5998 21.0143
Au 57.5984 74.7451 16.3737
Au 57.6010 58.7408 35.1051
Au 57.6026 42.6246 4.3884
Au 57.6078 77.5481 9.8904
Au 57.6104 61.5438 28.6217
Au 57.6114 0.3005 39.2986
Au 57.6181 23.3253 22.6727
Au 57.6199 64.3468 22.1384
Au 57.6248 46.3501 6.0469
Au 57.6294 67.1498 15.6551
Au 57.6320 51.1456 34.3864
Au 57.6389 69.9528 9.1718
Au 57.6403 27.0507 24.3312
Au 57.6415 53.9486 27.9031
Au 57.6460 2.1425 10.0915
Au 57.6483 72.7558 2.6885
Au 57.6509 56.7516 21.4198
Au 57.6604 59.5546 14.9365
Au 57.6625 30.7762 25.9896
Au 57.6630 43.5503 33.6678
Au 57.6682 5.8680 11.7499
Au 57.6699 62.3576 8.4532
Au 57.6725 46.3533 27.1845
Au 57.6794 65.1606 1.9699
Au 57.6820 49.1563 20.7012
Au 57.6847 34.5017 27.6481
Au 57.6903 9.5935 13.4083
Au 57.6915 51.9593 14.2179
Au 57.7009 54.7623 7.7345
Au 57.7069 38.2272 29.3065
Au 57.7104 57.5653 1.2512
Au 57.7125 13.3189 15.0668
Au 57.7347 17.0444 16.7252
Au 57.7414 40.0692 0.0994
Au 57.7414 49.9700 0.5326
Au 57.7569 20.7699 18.3837
Au 57.7636 43.7947 1.7578
Au 57.7724 1.4706 36.6680
Au 57.7791 24.4954 20.0421
Au 57.7858 47.5201 3.4163
Au 57.7946 5.1961 38.3264
Au 57.8013 28.2208 21.7006
Au 57.8070 3.3126 7.4609
Au 57.8168 8.9215 39.9849
Au 57.8235 31.9463 23.3590
Au 57.8292 7.0381 9.1193
Au 57.8457 35.6718 25.0175
Au 57.8513 10.7636 10.7778
Au 57.8521 78.8986 36.1252
Au 57.8679 39.3973 26.6759
Au 57.8735 14.4890 12.4362
Au 57.8832 71.3033 35.4066
Au 57.8926 74.1063 28.9233
Au 57.8957 18.2145 14.0946
Au 57.9021 76.9093 22.4400
Au 57.9116 79.7123 15.9567
Au 57.9142 63.7080 34.6880
Au 57.9179 21.9400 15.7531
Au 57.9237 66.5110 28.2047
Au 57.9332 69.3140 21.7213
Au 57.9334 2.6407 34.0374
Au 57.9401 25.6654 17.4115
Au 57.9426 72.1170 15.2380
Au 57.9452 56.1128 33.9694
Au 57.9458 0.7572 3.1718
Au 57.9521 74.9200 8.7547
Au 57.9547 58.9158 27.4860
Au 57.9556 6.3661 35.6958
Au 57.9616 77.7230 2.2714
Au 57.9623 29.3909 19.0700
Au 57.9642 61.7188 21.0027
Au 57.9668 45.7145 39.7340
Au 57.9680 4.4827 4.8303
Au 57.9737 64.5218 14.5194
Au 57.9763 48.5175 33.2507
Au 57.9778 10.0916 37.3543
Au 57.9831 67.3248 8.0361
Au 57.9845 33.1164 20.7284
Au 57.9857 51.3205 26.7674
Au 57.9902 8.2082 6.4887
Au 57.9926 70.1278 1.5528
Au 57.9952 54.1235 20.2841
Au 57.9978 38.1193 39.0154
Au 58.0000 13.8171 39.0127
Au 58.0047 56.9265 13.8008
Au 58.0067 36.8419 22.3869
Au 58.0073 40.9223 32.5321
Au 58.0124 11.9336 8.1472
Au 58.0142 59.7295 7.3175
Au 58.0168 43.7253 26.0488
Au 58.0236 62.5325 0.8341
Au 58.0262 46.5283 19.5655
Au 58.0289 40.5673 24.0453
Au 58.0345 15.6591 9.8056
Au 58.0357 49.3313 13.0822
Au 58.0452 52.1343 6.5988
Au 58.0547 54.9372 0.1155
Au 58.0567 19.3846 11.4640
Au 58.0722 0.0853 29.7483
Au 58.0789 23.1101 13.1225
Au 58.0944 3.8107 31.4068
Au 58.1011 26.8355 14.7809
Au 58.1068 1.9273 0.5412
Au 58.1166 7.5362 33.0652
Au 58.1233 30.5610 16.4394
Au 58.1290 5.6528 2.1997
Au 58.1388 11.2617 34.7237
Au 58.1455 34.2865 18.0978
Au 58.1512 9.3782 3.8581
Au 58.1610 14.9872 36.3821
Au 58.1677 38.0119 19.7563
Au 58.1734 13.1037 5.5166
Au 58.1832 18.7126 38.0406
Au 58.1899 41.7374 21.4147
Au 58.1955 16.8292 7.1750
Au 58.1964 76.2705 34.9895
Au 58.2054 22.4381 39.6990
Au 58.2059 79.0735 28.5062
Au 58.2177 20.5547 8.8335
Au 58.2274 68.6752 34.2709
Au 58.2333 1.2554 27.1177
Au 58.2369 71.4782 27.7876
Au 58.2399 24.2801 10.4919
Au 58.2464 74.2812 21.3043
Au 58.2554 4.9808 28.7762
Au 58.2559 77.0842 14.8209
Au 58.2585 61.0800 33.5523
Au 58.2621 28.0056 12.1503
Au 58.2653 79.8872 8.3376
Au 58.2679 63.8830 27.0690
Au 58.2774 66.6860 20.5856
Au 58.2776 8.7063 30.4346
Au 58.2800 50.6817 39.3170
Au 58.2843 31.7311 13.8088
Au 58.2869 69.4890 14.1023
Au 58.2895 53.4847 32.8336
Au 58.2964 72.2920 7.6190
Au 58.2990 56.2877 26.3503
Au 58.2998 12.4318 32.0931
Au 58.3058 75.0950 1.1357
Au 58.3065 35.4566 15.4672
Au 58.3084 59.0907 19.8670
Au 58.3110 43.0865 38.5983
Au 58.3122 10.5483 1.2275
Au 58.3179 61.8937 13.3837
Au 58.3205 45.8895 32.1150
Au 58.3220 16.1573 33.7515
Au 58.3274 64.6967 6.9004
Au 58.3287 39.1820 17.1257
Au 58.3300 48.6925 25.6317
Au 58.3344 14.2738 2.8860
Au 58.3369 67.4997 0.4171
Au 58.3395 51.4955 19.1484
Au 58.3442 19.8827 35.4100
Au 58.3489 54.2985 12.6651
Au 58.3509 42.9075 18.7841
Au 58.3566 17.9993 4.5444
Au 58.3584 57.1014 6.1818
Au 58.3664 23.6082 37.0684
Au 58.3787 21.7248 6.2029
Au 58.3800 46.7032 11.9464
Au 58.3886 27.3337 38.7269
Au 58.3894 49.5062 5.4631
Au 58.3943 2.4254 24.4871
Au 58.4009 25.4502 7.8613
Au 58.4164 6.1509 26.1456
Au 58.4231 29.1757 9.5198
Au 58.4386 9.8764 27.8040
Au 58.4453 32.9012 11.1782
Au 58.4608 13.6019 29.4625
Au 58.4675 36.6266 12.8366
Au 58.4830 17.3273 31.1209
Au 58.4897 40.3521 14.4951
Au 58.4954 15.4439 0.2554
Au 58.5052 21.0528 32.7794
Au 58.5176 19.1694 1.9138
Au 58.5274 24.7783 34.4378
Au 58.5397 22.8948 3.5723
Au 58.5407 73.6424 33.8538
Au 58.5496 28.5038 36.0963
Au 58.5501 76.4454 27.3705
Au 58.5553 3.5955 21.8566
Au 58.5596 79.2484 20.8872
Au 58.5619 26.6203 5.2307
Au 58.5622 63.2442 39.6185
Au 58.5717 66.0472 33.1352
Au 58.5718 32.2292 37.7547
Au 58.5775 7.3210 23.5150
Au 58.5812 68.8502 26.6519
Au 58.5841 30.3458 6.8892
Au 58.5906 71.6532 20.1686
Au 58.5932 55.6489 38.8999
Au 58.5996 11.0465 25.1734
Au 58.6001 74.4562 13.6852
Au 58.6027 58.4519 32.4166
Au 58.6063 34.0713 8.5476
Au 58.6096 77.2592 7.2019
Au 58.6122 61.2549 25.9332
Au 58.6217 64.0579 19.4499
Au 58.6218 14.7720 26.8319
Au 58.6243 48.0537 38.1812
Au 58.6285 37.7967 10.2061
Au 58.6311 66.8609 12.9666
Au 58.6337 50.8567 31.6979
Au 58.6406 69.6639 6.4833
Au 58.6432 53.6597 25.2146
Au 58.6440 18.4974 28.4903
Au 58.6507 41.5222 11.8645
Au 58.6527 56.4627 18.7313
Au 58.6553 40.4584 37.4626
Au 58.6622 59.2657 12.2480
Au 58.6648 43.2614 30.9793
Au 58.6662 22.2229 30.1488
Au 58.6717 62.0686 5.7647
Au 58.6743 46.0644 24.4960
Au 58.6837 48.8674 18.0127
Au 58.6884 25.9484 31.8072
Au 58.6932 51.6704 11.5294
Au 58.6941 1.0401 17.5675
Au 58.7007 24.0649 0.9417
Au 58.7027 54.4734 5.0460
Au 58.7106 29.6738 33.4657
Au 58.7163 4.7656 19.2260
Au 58.7229 27.7904 2.6001
Au 58.7328 33.3993 35.1241
Au 58.7385 8.4911 20.8844
Au 58.7451 31.5159 4.2586
Au 58.7606 12.2166 22.5429
Au 58.7673 35.2413 5.9170
Au 58.7828 15.9420 24.2013
Au 58.7895 38.9668 7.5755
Au 58.8050 19.6675 25.8597
Au 58.8117 42.6923 9.2339
Au 58.8272 23.3930 27.5182
Au 58.8444 75.8066 39.9200
Au 58.8494 27.1185 29.1766
Au 58.8539 78.6096 33.4367
Au 58.8551 2.2102 14.9369
Au 58.8716 30.8439 30.8351
Au 58.8754 68.2114 39.2014
Au 58.8773 5.9357 16.5954
Au 58.8849 71.0144 32.7181
Au 58.8938 34.5694 32.4935
Au 58.8944 73.8174 26.2348
Au 58.8995 9.6612 18.2538
Au 58.9039 76.6204 19.7515
Au 58.9061 32.6860 1.6280
Au 58.9065 60.6161 38.4828
Au 58.9134 79.4234 13.2682
Au 58.9160 63.4191 31.9995
Au 58.9216 13.3867 19.9123
Au 58.9254 66.2221 25.5162
Au 58.9283 36.4114 3.2864
Au 58.9349 69.0251 19.0328
Au 58.9375 53.0209 37.7642
Au 58.9438 17.1121 21.5707
Au 58.9444 71.8281 12.5495
Au 58.9470 55.8239 31.2808
Au 58.9505 40.1369 4.9449
Au 58.9539 74.6311 6.0662
Au 58.9565 58.6269 24.7975
Au 58.9659 61.4299 18.3142
Au 58.9660 20.8376 23.2292
Au 58.9685 45.4256 37.0455
Au 58.9727 43.8624 6.6033
Au 58.9754 64.2328 11.8309
Au 58.9780 48.2286 30.5622
Au 58.9849 67.0358 5.3476
Au 58.9875 51.0316 24.0789
Au 58.9882 24.5631 24.8876
Au 58.9970 53.8346 17.5956
Au 58.9996 37.8304 36.3269
Au 59.0064 56.6376 11.1123
Au 59.0090 40.6334 29.8436
Au 59.0104 28.2885 26.5460
Au 59.0159 59.4406 4.6290
Au 59.0161 3.3803 12.3063
Au 59.0185 43.4363 23.3603
Au 59.0280 46.2393 16.8770
Au 59.0326 32.0140 28.2045
Au 59.0375 49.0423 10.3936
Au 59.0383 7.1058 13.9648
Au 59.0469 51.8453 3.9103
Au 59.0548 35.7395 29.8629
Au 59.0605 10.8313 15.6232
Au 59.0827 14.5567 17.2817
Au 59.0893 37.5815 0.6558
Au 59.1048 18.2822 18.9401
Au 59.1115 41.3070 2.3143
Au 59.1270 22.0077 20.5986
Au 59.1337 45.0325 3.9727
Au 59.1425 2.7084 38.8828
Au 59.1492 25.7332 22.2570
Au 59.1549 0.8249 8.0173
Au 59.1714 29.4586 23.9155
Au 59.1771 4.5504 9.6757
Au 59.1887 73.1786 38.7843
Au 59.1936 33.1841 25.5739
Au 59.1982 75.9816 32.3010
Au 59.1993 8.2759 11.3342
Au 59.2076 78.7846 25.8177
Au 59.2158 36.9096 27.2323
Au 59.2197 65.5833 38.0657
Au 59.2215 12.0013 12.9926
Au 59.2292 68.3863 31.5824
Au 59.2387 71.1893 25.0991
Au 59.2437 15.7268 14.6511
Au 59.2481 73.9923 18.6158
Au 59.2507 57.9881 37.3471
Au 59.2576 76.7953 12.1324
Au 59.2602 60.7911 30.8638
Au 59.2658 19.4523 16.3095
Au 59.2671 79.5983 5.6491
Au 59.2697 63.5941 24.3804
Au 59.2792 66.3971 17.8971
Au 59.2814 0.1530 34.5938
Au 59.2818 50.3928 36.6285
Au 59.2880 23.1778 17.9680
Au 59.2886 69.2000 11.4138
Au 59.2912 53.1958 30.1451
Au 59.2947 46.2025 1.3421
Au 59.2981 72.0030 4.9305
Au 59.3007 55.9988 23.6618
Au 59.3036 3.8785 36.2523
Au 59.3102 58.8018 17.1785
Au 59.3102 26.9032 19.6264
Au 59.3128 42.7976 35.9098
Au 59.3159 1.9950 5.3867
Au 59.3197 61.6048 10.6952
Au 59.3223 45.6006 29.4265
Au 59.3257 7.6039 37.9107
Au 59.3291 64.4078 4.2119
Au 59.3317 48.4035 22.9432
Au 59.3324 30.6287 21.2849
Au 59.3381 5.7205 7.0451
Au 59.3412 51.2065 16.4599
Au 59.3479 11.3294 39.5691
Au 59.3507 54.0095 9.9766
Au 59.3546 34.3542 22.9433
Au 59.3602 56.8125 3.4932
Au 59.3603 9.4460 8.7036
Au 59.3768 38.0797 24.6017
Au 59.3817 46.4143 9.2579
Au 59.3825 13.1714 10.3620
Au 59.3912 49.2173 2.7746
Au 59.4047 16.8969 12.0205
Au 59.4269 20.6224 13.6789
Au 59.4424 1.3231 31.9632
Au 59.4490 24.3479 15.3374
Au 59.4646 5.0485 33.6217
Au 59.4712 28.0733 16.9958
Au 59.4769 3.1651 2.7561
Au 59.4867 8.7740 35.2801
Au 59.4934 31.7988 18.6543
Au 59.4991 6.8906 4.4146
Au 59.5019 78.1458 38.3672
Au 59.5089 12.4995 36.9385
Au 59.5156 35.5243 20.3127
Au 59.5213 10.6160 6.0730
Au 59.5311 16.2250 38.5970
Au 59.5329 70.5505 37.6486
Au 59.5378 39.2497 21.9712
Au 59.5424 73.3535 31.1653
Au 59.5435 14.3415 7.7314
Au 59.5519 76.1565 24.6820
Au 59.5614 78.9595 18.1987
Au 59.5640 62.9553 36.9300
Au 59.5657 18.0670 9.3899
Au 59.5734 65.7583 30.4467
Au 59.5829 68.5613 23.9634
Au 59.5879 21.7925 11.0483
Au 59.5924 71.3642 17.4800
Au 59.5950 55.3600 36.2114
Au 59.6019 74.1672 10.9967
Au 59.6034 2.4932 29.3326
Au 59.6045 58.1630 29.7281
Au 59.6100 25.5179 12.7068
Au 59.6114 76.9702 4.5134
Au 59.6140 60.9660 23.2447
Au 59.6234 63.7690 16.7614
Au 59.6256 6.2186 30.9911
Au 59.6260 47.7648 35.4927
Au 59.6322 29.2434 14.3652
Au 59.6329 66.5720 10.2781
Au 59.6355 50.5677 29.0094
Au 59.6379 4.3352 0.1255
Au 59.6424 69.3750 3.7948
Au 59.6450 53.3707 22.5261
Au 59.6478 9.9441 32.6495
Au 59.6544 32.9689 16.0237
Au 59.6545 56.1737 16.0428
Au 59.6571 40.1695 34.7741
Au 59.6601 8.0607 1.7840
Au 59.6639 58.9767 9.5595
Au 59.6665 42.9725 28.2908
Au 59.6699 13.6696 34.3080
Au 59.6734 61.7797 3.0762
Au 59.6760 45.7755 21.8075
Au 59.6766 36.6944 17.6821
Au 59.6823 11.7861 3.4424
Au 59.6855 48.5785 15.3242
Au 59.6921 17.3951 35.9664
Au 59.6950 51.3815 8.8409
Au 59.6988 40.4198 19.3406
Au 59.7044 54.1845 2.3575
Au 59.7045 15.5116 5.1009
Au 59.7143 21.1205 37.6248
Au 59.7267 19.2371 6.7593
Au 59.7365 24.8460 39.2833
Au 59.7489 22.9626 8.4177
Au 59.7644 3.6632 26.7020
Au 59.7710 26.6880 10.0762
Au 59.7866 7.3887 28.3605
Au 59.7932 30.4135 11.7346
Au 59.8088 11.1142 30.0189
Au 59.8154 34.1390 13.3931
Au 59.8309 14.8397 31.6774
Au 59.8376 37.8644 15.0515
Au 59.8433 12.9562 0.8118
Au 59.8462 75.5177 37.2315
Au 59.8531 18.5651 33.3358
Au 59.8557 78.3207 30.7482
Au 59.8598 41.5899 16.7100
Au 59.8655 16.6817 2.4703
Au 59.8753 22.2906 34.9943
Au 59.8772 67.9225 36.5129
Au 59.8867 70.7255 30.0296
Au 59.8877 20.4072 4.1287
Au 59.8962 73.5285 23.5463
Au 59.8975 26.0161 36.6527
Au 59.9032 1.1079 22.4130
Au 59.9056 76.3314 17.0630
Au 59.9082 60.3272 35.7943
Au 59.9099 24.1326 5.7871
Au 59.9151 79.1344 10.5796
Au 59.9177 63.1302 29.3110
Au 59.9197 29.7416 38.3111
Au 59.9254 4.8333 24.0714
Au 59.9272 65.9332 22.8277
Au 59.9321 27.8581 7.4456
Au 59.9367 68.7362 16.3443
Au 59.9393 52.7320 35.0757
Au 59.9419 33.4670 39.9696
Au 59.9461 71.5392 9.8610
Au 59.9476 8.5588 25.7299
Au 59.9487 55.5349 28.5923
Au 59.9542 31.5836 9.1040
Au 59.9556 74.3422 3.3777
Au 59.9582 58.3379 22.1090
Au 59.9677 61.1409 15.6257
Au 59.9698 12.2843 27.3883
Au 59.9703 45.1367 34.3570
Au 59.9764 35.3091 10.7625
Au 59.9772 63.9439 9.1424
Au 59.9798 47.9397 27.8737
Au 59.9866 66.7469 2.6591
Au 59.9892 50.7427 21.3904
Au 59.9919 16.0098 29.0468
Au 59.9986 39.0345 12.4209
Au 59.9987 53.5457 14.9071
Au 60.0013 37.5414 33.6384
Au 60.0082 56.3487 8.4238
Au 60.0108 40.3444 27.1551
Au 60.0141 19.7352 30.7052
Au 60.0177 59.1517 1.9405
Au 60.0203 43.1474 20.6718
Au 60.0208 42.7600 14.0794
Au 60.0297 45.9504 14.1885
Au 60.0363 23.4607 32.3637
Au 60.0392 48.7534 7.7051
Au 60.0487 21.5772 1.4981
Au 60.0487 51.5564 1.2218
Au 60.0585 27.1862 34.0221
Au 60.0642 2.2779 19.7824
Au 60.0709 25.3027 3.1566
Au 60.0807 30.9116 35.6806
Au 60.0864 6.0034 21.4408
Au 60.0931 29.0282 4.8150
Au 60.1029 34.6371 37.3390
Au 60.1086 9.7289 23.0993
Au 60.1152 32.7537 6.4734
Au 60.1308 13.4544 24.7577
Au 60.1374 36.4791 8.1319
Au 60.1530 17.1798 26.4162
Au 60.1596 40.2046 9.7903
Au 60.1751 20.9053 28.0746
Au 60.1818 43.9301 11.4488
Au 60.1904 72.8897 36.0958
Au 60.1973 24.6308 29.7331
Au 60.1999 75.6927 29.6125
Au 60.2094 78.4957 23.1292
Au 60.2195 28.3563 31.3915
Au 60.2215 65.2944 35.3772
Au 60.2252 3.4480 17.1518
Au 60.2309 68.0974 28.8939
Au 60.2319 26.4728 0.5260
Au 60.2404 70.9004 22.4106
Au 60.2417 32.0817 33.0500
Au 60.2474 7.1735 18.8102
Au 60.2499 73.7034 15.9273
Au 60.2525 57.6992 34.6586
Au 60.2541 30.1983 2.1844
Au 60.2594 76.5064 9.4439
Au 60.2620 60.5021 28.1753
Au 60.2639 35.8072 34.7084
Au 60.2688 79.3094 2.9606
Au 60.2696 10.8990 20.4687
Au 60.2714 63.3051 21.6919
Au 60.2763 33.9238 3.8429
Au 60.2809 66.1081 15.2086
Au 60.2835 50.1039 33.9399
Au 60.2904 68.9111 8.7253
Au 60.2918 14.6244 22.1271
Au 60.2930 52.9069 27.4566
Au 60.2984 37.6492 5.5013
Au 60.2999 71.7141 2.2420
Au 60.3025 55.7099 20.9733
Au 60.3051 39.7056 39.7046
Au 60.3119 58.5129 14.4900
Au 60.3140 18.3499 23.7856
Au 60.3145 42.5086 33.2213
Au 60.3206 41.3747 7.1597
Au 60.3214 61.3159 8.0067
Au 60.3240 45.3116 26.7380
Au 60.3309 64.1189 1.5234
Au 60.3335 48.1146 20.2547
Au 60.3361 22.0754 25.4440
Au 60.3430 50.9176 13.7714
Au 60.3525 53.7206 7.2881
Au 60.3583 25.8009 27.1025
Au 60.3619 56.5236 0.8047
Au 60.3640 0.8926 12.8628
Au 60.3805 29.5263 28.7609
Au 60.3862 4.6181 14.5212
Au 60.4027 33.2518 30.4194
Au 60.4084 8.3436 16.1797
Au 60.4306 12.0691 17.8381
Au 60.4373 35.0938 1.2123
Au 60.4528 15.7945 19.4965
Au 60.4594 38.8193 2.8707
Au 60.4750 19.5200 21.1550
Au 60.4816 42.5448 4.5292
Au 60.4905 0.2207 39.4393
Au 60.4972 23.2455 22.8134
Au 60.5037 77.8569 35.6787
Au 60.5038 46.2703 6.1876
Au 60.5193 26.9710 24.4719
Au 60.5250 2.0627 10.2322
Au 60.5347 70.2616 34.9601
Au 60.5415 30.6964 26.1303
Au 60.5442 73.0646 28.4768
Au 60.5472 5.7882 11.8906
Au 60.5536 75.8676 21.9935
Au 60.5631 78.6706 15.5102
Au 60.5637 34.4219 27.7888
Au 60.5657 62.6663 34.2415
Au 60.5694 9.5137 13.5491
Au 60.5752 65.4693 27.7582
Au 60.5847 68.2723 21.2749
Au 60.5859 38.1474 29.4472
Au 60.5916 13.2391 15.2075
Au 60.5942 71.0753 14.7915
Au 60.5968 55.0711 33.5229
Au 60.6036 73.8783 8.3082
Au 60.6062 57.8741 27.0395
Au 60.6131 76.6813 1.8249
Au 60.6138 16.9646 16.8660
Au 60.6157 60.6771 20.5562
Au 60.6183 44.6728 39.2876
Au 60.6204 39.9894 0.2401
Au 60.6252 63.4801 14.0729
Au 60.6278 47.4758 32.8042
Au 60.6347 66.2831 7.5896
Au 60.6360 20.6901 18.5244
Au 60.6373 50.2788 26.3209
Au 60.6426 43.7149 1.8986
Au 60.6441 69.0861 1.1063
Au 60.6467 53.0818 19.8376
Au 60.6493 37.0776 38.5689
Au 60.6515 1.3908 36.8087
Au 60.6562 55.8848 13.3543
Au 60.6582 24.4156 20.1828
Au 60.6588 39.8806 32.0856
Au 60.6648 47.4403 3.5570
Au 60.6657 58.6878 6.8710
Au 60.6683 42.6836 25.6023
Au 60.6737 5.1163 38.4671
Au 60.6752 61.4908 0.3877
Au 60.6778 45.4866 19.1190
Au 60.6803 28.1410 21.8413
Au 60.6860 3.2328 7.6016
Au 60.6872 48.2896 12.6357
Au 60.6967 51.0926 6.1523
Au 60.7025 31.8665 23.4997
Au 60.7082 6.9583 9.2600
Au 60.7247 35.5920 25.1582
Au 60.7304 10.6838 10.9185
Au 60.7526 14.4092 12.5769
Au 60.7748 18.1347 14.2354
Au 60.7970 21.8602 15.8938
Au 60.8125 2.5609 34.1781
Au 60.8192 25.5857 17.5523
Au 60.8248 0.6774 3.3125
Au 60.8258 48.6104 0.9264
Au 60.8347 6.2863 35.8365
Au 60.8413 29.3111 19.2107
Au 60.8470 4.4029 4.9710
Au 60.8479 75.2288 34.5430
Au 60.8569 10.0118 37.4950
Au 60.8574 78.0318 28.0597
Au 60.8635 33.0366 20.8691
Au 60.8692 8.1284 6.6294
Au 60.8790 67.6335 33.8244
Au 60.8791 13.7373 39.1534
Au 60.8857 36.7621 22.5276
Au 60.8884 70.4365 27.3411
Au 60.8914 11.8538 8.2879
Au 60.8979 73.2395 20.8578
Au 60.9005 57.2353 39.5891
Au 60.9074 76.0425 14.3745
Au 60.9100 60.0383 33.1058
Au 60.9136 15.5793 9.9463
Au 60.9169 78.8455 7.8911
Au 60.9195 62.8413 26.6225
Au 60.9289 65.6443 20.1391
Au 60.9315 49.6400 38.8705
Au 60.9358 19.3048 11.6048
Au 60.9384 68.4473 13.6558
Au 60.9410 52.4430 32.3872
Au 60.9479 71.2503 7.1725
Au 60.9505 55.2460 25.9038
Au 60.9513 0.0055 29.8891
Au 60.9574 74.0533 0.6892
Au 60.9580 23.0303 13.2632
Au 60.9600 58.0490 19.4205
Au 60.9626 42.0448 38.1518
Au 60.9694 60.8520 12.9372
Au 60.9720 44.8478 31.6685
Au 60.9735 3.7310 31.5475
Au 60.9789 63.6550 6.4539
Au 60.9802 26.7557 14.9217
Au 60.9815 47.6508 25.1852
Au 60.9858 1.8475 0.6819
Au 60.9910 50.4538 18.7019
Au 60.9957 7.4564 33.2059
Au 61.0005 53.2568 12.2186
Au 61.0024 30.4812 16.5801
Au 61.0080 5.5730 2.3404
Au 61.0099 56.0598 5.7353
Au 61.0179 11.1819 34.8644
Au 61.0220 42.8585 17.9833
Au 61.0245 34.2067 18.2385
Au 61.0302 9.2985 3.9988
Au 61.0315 45.6615 11.5000
Au 61.0401 14.9074 36.5228
Au 61.0410 48.4645 5.0166
Au 61.0467 37.9322 19.8970
Au 61.0524 13.0239 5.6573
Au 61.0622 18.6329 38.1813
Au 61.0746 16.7494 7.3157
Au 61.0844 22.3583 39.8397
Au 61.0968 20.4749 8.9742
Au 61.1123 1.1756 27.2585
Au 61.1190 24.2003 10.6326
Au 61.1345 4.9010 28.9169
Au 61.1412 27.9258 12.2911
Au 61.1567 8.6265 30.5754
Au 61.1634 31.6513 13.9495
Au 61.1789 12.3520 32.2338
Au 61.1827 69.7977 39.8906
Au 61.1855 35.3768 15.6080
Au 61.1912 10.4685 1.3682
Au 61.1922 72.6007 33.4073
Au 61.2011 16.0775 33.8922
Au 61.2017 75.4037 26.9240
Au 61.2077 39.1022 17.2664
Au 61.2111 78.2067 20.4407
Au 61.2134 14.1940 3.0267
Au 61.2137 62.2025 39.1720
Au 61.2232 65.0055 32.6887
Au 61.2233 19.8029 35.5507
Au 61.2327 67.8085 26.2054
Au 61.2356 17.9195 4.6851
Au 61.2422 70.6115 19.7221
Au 61.2448 54.6072 38.4534
Au 61.2454 23.5284 37.2091
Au 61.2516 73.4145 13.2387
Au 61.2542 57.4102 31.9701
Au 61.2578 21.6450 6.3436
Au 61.2611 76.2175 6.7554
Au 61.2637 60.2132 25.4868
Au 61.2676 27.2539 38.8676
Au 61.2706 79.0205 0.2721
Au 61.2732 63.0162 19.0034
Au 61.2733 2.3457 24.6279
Au 61.2758 47.0120 37.7348
Au 61.2800 25.3704 8.0020
Au 61.2827 65.8192 12.5201
Au 61.2853 49.8150 31.2514
Au 61.2921 68.6222 6.0368
Au 61.2947 52.6180 24.7681
Au 61.2955 6.0711 26.2863
Au 61.3022 29.0959 9.6605
Au 61.3042 55.4210 18.2848
Au 61.3068 39.4167 37.0161
Au 61.3137 58.2240 11.8015
Au 61.3163 42.2197 30.5328
Au 61.3177 9.7966 27.9448
Au 61.3232 61.0270 5.3182
Au 61.3244 32.8214 11.3189
Au 61.3258 45.0227 24.0495
Au 61.3353 47.8257 17.5662
Au 61.3399 13.5221 29.6032
Au 61.3447 50.6287 11.0829
Au 61.3466 36.5469 12.9774
Au 61.3542 53.4317 4.5996
Au 61.3621 17.2475 31.2616
Au 61.3687 40.2723 14.6358
Au 61.3744 15.3641 0.3961
Au 61.3843 20.9730 32.9201
Au 61.3966 19.0896 2.0545
Au 61.4064 24.6985 34.5785
Au 61.4188 22.8150 3.7130
Au 61.4286 28.4240 36.2370
Au 61.4343 3.5157 21.9973
Au 61.4410 26.5405 5.3714
Au 61.4508 32.1494 37.8954
Au 61.4565 7.2412 23.6557
Au 61.4632 30.2660 7.0299
Au 61.4787 10.9667 25.3142
Au 61.4854 33.9915 8.6883
Au 61.4959 74.7649 39.4736
Au 61.5009 14.6922 26.9726
Au 61.5054 77.5679 32.9902
Au 61.5076 37.7169 10.3468
Au 61.5231 18.4176 28.6311
Au 61.5270 67.1697 38.7549
Au 61.5297 41.4424 12.0052
Au 61.5364 69.9727 32.2716
Au 61.5453 22.1431 30.2895
Au 61.5459 72.7757 25.7883
Au 61.5554 75.5787 19.3050
Au 61.5580 59.5744 38.0363
Au 61.5649 78.3817 12.8217
Au 61.5675 25.8686 31.9479
Au 61.5675 62.3774 31.5530
Au 61.5731 0.9604 17.7082
Au 61.5770 65.1804 25.0697
Au 61.5798 23.9851 1.0824
Au 61.5864 67.9834 18.5864
Au 61.5890 51.9792 37.3177
Au 61.5896 29.5941 33.6064
Au 61.5953 4.6858 19.3667
Au 61.5959 70.7864 12.1030
Au 61.5985 54.7822 30.8344
Au 61.6020 27.7106 2.7408
Au 61.6054 73.5894 5.6197
Au 61.6080 57.5852 24.3510
Au 61.6118 33.3195 35.2648
Au 61.6175 60.3882 17.8677
Au 61.6175 8.4113 21.0251
Au 61.6201 44.3839 36.5990
Au 61.6242 31.4361 4.3993
Au 61.6269 63.1912 11.3844
Au 61.6295 47.1869 30.1157
Au 61.6364 65.9942 4.9011
Au 61.6390 49.9899 23.6324
Au 61.6397 12.1368 22.6836
Au 61.6464 35.1616 6.0577
Au 61.6485 52.7929 17.1491
Au 61.6511 36.7887 35.8804
Au 61.6580 55.5959 10.6658
Au 61.6606 39.5917 29.3971
Au 61.6619 15.8622 24.3420
Au 61.6674 58.3989 4.1825
Au 61.6686 38.8870 7.7162
Au 61.6700 42.3947 22.9138
Au 61.6795 45.1977 16.4305
Au 61.6841 19.5877 26.0005
Au 61.6890 48.0006 9.9472
Au 61.6907 42.6125 9.3746
Au 61.6985 50.8036 3.4638
Au 61.7063 23.3132 27.6589
Au 61.7285 27.0387 29.3174
Au 61.7341 2.1304 15.0776
Au 61.7506 30.7641 30.9758
Au 61.7563 5.8559 16.7361
Au 61.7630 28.8807 0.1102
Au 61.7728 34.4896 32.6342
Au 61.7785 9.5814 18.3945
Au 61.7852 32.6062 1.7687
Au 61.8007 13.3069 20.0530
Au 61.8074 36.3316 3.4271
Au 61.8092 79.7321 39.0565
Au 61.8229 17.0323 21.7114
Au 61.8296 40.0571 5.0856
Au 61.8402 72.1369 38.3378
Au 61.8451 20.7578 23.3699
Au 61.8497 74.9399 31.8545
Au 61.8518 43.7826 6.7440
Au 61.8592 77.7429 25.3712
Au 61.8673 24.4833 25.0283
Au 61.8712 64.5416 37.6192
Au 61.8807 67.3446 31.1359
Au 61.8895 28.2088 26.6868
Au 61.8902 70.1476 24.6526
Au 61.8951 3.3005 12.4470
Au 61.8997 72.9506 18.1693
Au 61.9023 56.9464 36.9006
Au 61.9091 75.7536 11.6860
Au 61.9116 31.9342 28.3452
Au 61.9117 59.7494 30.4173
Au 61.9173 7.0260 14.1055
Au 61.9186 78.5566 5.2026
Au 61.9212 62.5524 23.9340
Au 61.9307 65.3554 17.4506
Au 61.9333 49.3511 36.1820
Au 61.9338 35.6597 30.0037
Au 61.9395 10.7515 15.7639
Au 61.9402 68.1584 10.9673
Au 61.9428 52.1541 29.6986
Au 61.9496 70.9613 4.4840
Au 61.9522 54.9571 23.2153
Au 61.9617 14.4769 17.4224
Au 61.9617 57.7601 16.7320
Au 61.9643 41.7559 35.4633
Au 61.9684 37.5017 0.7965
Au 61.9712 60.5631 10.2487
Au 61.9738 44.5589 28.9800
Au 61.9807 63.3661 3.7654
Au 61.9833 47.3619 22.4967
Au 61.9839 18.2024 19.0808
Au 61.9906 41.2272 2.4550
Au 61.9927 50.1648 16.0134
Au 62.0022 52.9678 9.5301
Au 62.0061 21.9279 20.7393
Au 62.0117 55.7708 3.0468
Au 62.0128 44.9527 4.1134
Au 62.0216 2.6286 39.0236
Au 62.0283 25.6534 22.3977
Au 62.0339 0.7451 8.1580
Au 62.0427 48.1756 2.3281
Au 62.0505 29.3788 24.0562
Au 62.0561 4.4706 9.8165
Au 62.0727 33.1043 25.7146
Au 62.0783 8.1961 11.4749
Au 62.0948 36.8298 27.3731
Au 62.1005 11.9216 13.1333
Au 62.1227 15.6470 14.7918
Au 62.1449 19.3725 16.4502
Au 62.1534 77.1041 37.9208
Au 62.1604 0.0732 34.7345
Au 62.1629 79.9071 31.4374
Au 62.1671 23.0980 18.1087
Au 62.1738 46.1228 1.4828
Au 62.1826 3.7987 36.3930
Au 62.1845 69.5088 37.2021
Au 62.1893 26.8234 19.7671
Au 62.1939 72.3118 30.7188
Au 62.1949 1.9152 5.5274
Au 62.2034 75.1148 24.2355
Au 62.2048 7.5241 38.0514
Au 62.2115 30.5489 21.4256
Au 62.2129 77.9178 17.7522
Au 62.2155 61.9136 36.4835
Au 62.2171 5.6407 7.1859
Au 62.2250 64.7166 30.0002
Au 62.2270 11.2496 39.7099
Au 62.2337 34.2744 23.0840
Au 62.2344 67.5196 23.5169
Au 62.2393 9.3662 8.8443
Au 62.2439 70.3226 17.0336
Au 62.2465 54.3183 35.7649
Au 62.2534 73.1256 10.5502
Au 62.2558 37.9999 24.7425
Au 62.2560 57.1213 29.2816
Au 62.2615 13.0916 10.5028
Au 62.2629 75.9285 4.0669
Au 62.2655 59.9243 22.7982
Au 62.2749 62.7273 16.3149
Au 62.2775 46.7231 35.0463
Au 62.2837 16.8171 12.1612
Au 62.2844 65.5303 9.8316
Au 62.2870 49.5261 28.5629
Au 62.2939 68.3333 3.3483
Au 62.2965 52.3291 22.0796
Au 62.3059 20.5426 13.8196
Au 62.3060 55.1320 15.5963
Au 62.3086 39.1278 34.3276
Au 62.3155 57.9350 9.1130
Au 62.3181 41.9308 27.8443
Au 62.3214 1.2433 32.1039
Au 62.3249 60.7380 2.6297
Au 62.3275 44.7338 21.3610
Au 62.3281 24.2681 15.4781
Au 62.3370 47.5368 14.8777
Au 62.3436 4.9688 33.7624
Au 62.3465 50.3398 8.3944
Au 62.3503 27.9935 17.1365
Au 62.3559 3.0853 2.8968
Au 62.3560 53.1428 1.9110
Au 62.3658 8.6942 35.4208
Au 62.3725 31.7190 18.7950
Au 62.3781 6.8108 4.5553
Au 62.3880 12.4197 37.0793
Au 62.3947 35.4445 20.4534
Au 62.4003 10.5363 6.2137
Au 62.4102 16.1452 38.7377
Au 62.4169 39.1700 22.1119
Au 62.4225 14.2617 7.8722
Au 62.4447 17.9872 9.5306
Au 62.4669 21.7127 11.1891
Au 62.4824 2.4134 29.4733
Au 62.4891 25.4381 12.8475
Au 62.4977 74.4760 36.7850
Au 62.5046 6.1388 31.1318
Au 62.5072 77.2790 30.3017
Au 62.5113 29.1636 14.5059
Au 62.5169 4.2554 0.2662
Au 62.5268 9.8643 32.7902
Au 62.5287 66.8808 36.0664
Au 62.5335 32.8891 16.1644
Au 62.5382 69.6838 29.5831
Au 62.5391 7.9809 1.9247
Au 62.5477 72.4868 23.0998
Au 62.5490 13.5898 34.4487
Au 62.5557 36.6146 17.8228
Au 62.5572 75.2898 16.6165
Au 62.5598 59.2855 35.3478
Au 62.5613 11.7063 3.5831
Au 62.5666 78.0928 10.1332
Au 62.5692 62.0885 28.8645
Au 62.5712 17.3153 36.1071
Au 62.5779 40.3400 19.4813
Au 62.5787 64.8915 22.3812
Au 62.5835 15.4318 5.2416
Au 62.5882 67.6945 15.8978
Au 62.5908 51.6903 34.6292
Au 62.5934 21.0407 37.7656
Au 62.5977 70.4975 9.4145
Au 62.6003 54.4933 28.1459
Au 62.6057 19.1573 6.9000
Au 62.6071 73.3005 2.9312
Au 62.6097 57.2963 21.6625
Au 62.6156 24.7662 39.4240
Au 62.6192 60.0992 15.1792
Au 62.6218 44.0950 33.9105
Au 62.6279 22.8828 8.5585
Au 62.6287 62.9022 8.6959
Au 62.6313 46.8980 27.4272
Au 62.6382 65.7052 2.2126
Au 62.6408 49.7010 20.9439
Au 62.6434 3.5835 26.8427
Au 62.6501 26.6082 10.2169
Au 62.6502 52.5040 14.4606
Au 62.6597 55.3070 7.9773
Au 62.6623 39.3027 26.7086
Au 62.6656 7.3089 28.5012
Au 62.6692 58.1100 1.4940
Au 62.6718 42.1057 20.2253
Au 62.6723 30.3337 11.8753
Au 62.6813 44.9087 13.7420
Au 62.6878 11.0344 30.1596
Au 62.6907 47.7117 7.2587
Au 62.6945 34.0592 13.5338
Au 62.7002 50.5147 0.7753
Au 62.7100 14.7599 31.8181
Au 62.7167 37.7847 15.1922
Au 62.7223 12.8764 0.9525
Au 62.7322 18.4853 33.4765
Au 62.7389 41.5101 16.8507
Au 62.7445 16.6019 2.6110
Au 62.7544 22.2108 35.1350
Au 62.7667 20.3274 4.2694
Au 62.7766 25.9363 36.7934
Au 62.7822 1.0281 22.5537
Au 62.7889 24.0528 5.9279
Au 62.7988 29.6618 38.4519
Au 62.8044 4.7535 24.2122
Au 62.8109 79.4432 36.3680
Au 62.8111 27.7783 7.5863
Au 62.8266 8.4790 25.8706
Au 62.8333 31.5038 9.2448
Au 62.8420 71.8480 35.6493
Au 62.8488 12.2045 27.5290
Au 62.8514 74.6510 29.1660
Au 62.8555 35.2293 10.9032
Au 62.8609 77.4540 22.6827
Au 62.8710 15.9300 29.1875
Au 62.8730 64.2527 34.9307
Au 62.8777 38.9547 12.5616
Au 62.8825 67.0557 28.4474
Au 62.8919 69.8587 21.9641
Au 62.8932 19.6554 30.8459
Au 62.8999 42.6802 14.2201
Au 62.9014 72.6617 15.4808
Au 62.9040 56.6575 34.2121
Au 62.9109 75.4647 8.9974
Au 62.9135 59.4605 27.7288
Au 62.9154 23.3809 32.5044
Au 62.9204 78.2677 2.5141
Au 62.9230 62.2634 21.2455
Au 62.9256 46.2592 39.9768
Au 62.9277 21.4975 1.6388
Au 62.9324 65.0664 14.7621
Au 62.9350 49.0622 33.4935
Au 62.9376 27.1064 34.1628
Au 62.9419 67.8694 8.2788
Au 62.9432 2.1982 19.9231
Au 62.9445 51.8652 27.0101
Au 62.9499 25.2229 3.2973
Au 62.9514 70.6724 1.7955
Au 62.9540 54.6682 20.5268
Au 62.9566 38.6640 39.2581
Au 62.9598 30.8319 35.8213
Au 62.9635 57.4712 14.0435
Au 62.9654 5.9236 21.5816
Au 62.9661 41.4669 32.7748
Au 62.9721 28.9484 4.9557
Au 62.9729 60.2742 7.5602
Au 62.9755 44.2699 26.2915
Au 62.9819 34.5573 37.4797
Au 62.9824 63.0772 1.0769
Au 62.9850 47.0729 19.8082
Au 62.9876 9.6491 23.2400
Au 62.9943 32.6739 6.6142
Au 62.9945 49.8759 13.3249
Au 63.0040 52.6789 6.8416
Au 63.0098 13.3746 24.8984
Au 63.0134 55.4819 0.3583
Au 63.0165 36.3993 8.2726
Au 63.0320 17.1000 26.5569
Au 63.0387 40.1248 9.9311
Au 63.0542 20.8255 28.2153
Au 63.0609 43.8503 11.5895
Au 63.0764 24.5510 29.8738
Au 63.0986 28.2765 31.5322
Au 63.1042 3.3682 17.2925
Au 63.1109 26.3930 0.6667
Au 63.1208 32.0019 33.1907
Au 63.1264 7.0937 18.9510
Au 63.1331 30.1185 2.3251
Au 63.1430 35.7274 34.8491
Au 63.1486 10.8192 20.6094
Au 63.1552 76.8152 35.2323
Au 63.1553 33.8440 3.9836
Au 63.1647 79.6182 28.7489
Au 63.1708 14.5447 22.2679
Au 63.1775 37.5694 5.6420
Au 63.1862 69.2199 34.5136
Au 63.1930 18.2701 23.9263
Au 63.1957 72.0229 28.0303
Au 63.1997 41.2949 7.3005
Au 63.2052 74.8259 21.5470
Au 63.2146 77.6289 15.0637
Au 63.2152 21.9956 25.5847
Au 63.2172 61.6247 33.7950
Au 63.2219 45.0204 8.9589
Au 63.2267 64.4277 27.3117
Au 63.2362 67.2306 20.8284
Au 63.2374 25.7211 27.2432
Au 63.2388 51.2264 39.5597
Au 63.2430 0.8128 13.0035
Au 63.2457 70.0336 14.3451
Au 63.2483 54.0294 33.0764
Au 63.2551 72.8366 7.8617
Au 63.2577 56.8324 26.5931
Au 63.2596 29.4465 28.9016
Au 63.2646 75.6396 1.3784
Au 63.2652 4.5383 14.6619
Au 63.2672 59.6354 20.1097
Au 63.2698 43.6312 38.8411
Au 63.2767 62.4384 13.6264
Au 63.2793 46.4341 32.3577
Au 63.2818 33.1720 30.5601
Au 63.2862 65.2414 7.1431
Au 63.2874 8.2638 16.3204
Au 63.2888 49.2371 25.8744
Au 63.2957 68.0444 0.6598
Au 63.2983 52.0401 19.3911
Au 63.3077 54.8431 12.9078
Au 63.3096 11.9893 17.9788
Au 63.3103 38.8389 31.6391
Au 63.3163 35.0140 1.3530
Au 63.3172 57.6461 6.4245
Au 63.3198 41.6419 25.1558
Au 63.3293 44.4449 18.6725
Au 63.3318 15.7147 19.6373
Au 63.3385 38.7395 3.0114
Au 63.3388 47.2479 12.1892
Au 63.3482 50.0509 5.7059
Au 63.3540 19.4402 21.2957
Au 63.3607 42.4650 4.6699
Au 63.3695 0.1409 39.5800
Au 63.3762 23.1657 22.9542
Au 63.3829 46.1905 6.3283
Au 63.3984 26.8912 24.6126
Au 63.4040 1.9829 10.3729
Au 63.4206 30.6166 26.2710
Au 63.4262 5.7084 12.0313
Au 63.4428 34.3421 27.9295
Au 63.4484 9.4339 13.6898
Au 63.4706 13.1594 15.3482
Au 63.4928 16.8848 17.0067
Au 63.4994 74.1871 34.0965
Au 63.4995 39.9096 0.3808
Au 63.5089 76.9901 27.6132
Au 63.5150 20.6103 18.6651
Au 63.5184 79.7931 21.1299
Au 63.5210 63.7889 39.8612
Au 63.5217 43.6351 2.0393
Au 63.5305 66.5919 33.3779
Au 63.5305 1.3110 36.9494
Au 63.5372 24.3358 20.3236
Au 63.5400 69.3948 26.8946
Au 63.5494 72.1978 20.4113
Au 63.5520 56.1936 39.1426
Au 63.5527 5.0365 38.6078
Au 63.5589 75.0008 13.9280
Au 63.5594 28.0612 21.9820
Au 63.5615 58.9966 32.6593
Au 63.5650 3.1530 7.7423
Au 63.5684 77.8038 7.4447
Au 63.5710 61.7996 26.1760
Au 63.5805 64.6026 19.6927
Au 63.5816 31.7867 23.6405
Au 63.5831 48.5983 38.4240
Au 63.5872 6.8785 9.4007
Au 63.5899 67.4056 13.2093
Au 63.5925 51.4013 31.9407
Au 63.5994 70.2086 6.7260
Au 63.6020 54.2043 25.4573
Au 63.6038 35.5122 25.2989
Au 63.6089 73.0116 0.2427
Au 63.6094 10.6040 11.0592
Au 63.6115 57.0073 18.9740
Au 63.6141 41.0031 37.7054
Au 63.6210 59.8103 12.4907
Au 63.6236 43.8061 31.2220
Au 63.6304 62.6133 6.0074
Au 63.6316 14.3294 12.7176
Au 63.6330 46.6091 24.7387
Au 63.6425 49.4121 18.2554
Au 63.6520 52.2151 11.7721
Au 63.6538 18.0549 14.3761
Au 63.6615 55.0181 5.2888
Au 63.6760 21.7804 16.0345
Au 63.6915 2.4811 34.3188
Au 63.6925 47.4228 4.5701
Au 63.6982 25.5059 17.6930
Au 63.7039 0.5976 3.4533
Au 63.7137 6.2066 35.9773
Au 63.7204 29.2313 19.3514
Au 63.7260 4.3231 5.1117
Au 63.7359 9.9320 37.6357
Au 63.7426 32.9568 21.0099
Au 63.7482 8.0486 6.7701
Au 63.7581 13.6575 39.2941
Au 63.7648 36.6823 22.6683
Au 63.7704 11.7741 8.4286
Au 63.7926 15.4995 10.0870
Au 63.8127 79.1543 33.6795
Au 63.8148 19.2250 11.7455
Au 63.8342 68.7561 39.4441
Au 63.8370 22.9505 13.4039
Au 63.8437 71.5591 32.9608
Au 63.8525 3.6512 31.6882
Au 63.8532 74.3620 26.4775
Au 63.8592 26.6759 15.0624
Au 63.8627 77.1650 19.9942
Au 63.8649 1.7677 0.8227
Au 63.8653 61.1608 38.7255
Au 63.8721 79.9680 13.5109
Au 63.8747 7.3766 33.3467
Au 63.8747 63.9638 32.2422
Au 63.8814 30.4014 16.7208
Au 63.8842 66.7668 25.7589
Au 63.8871 5.4932 2.4811
Au 63.8937 69.5698 19.2756
Au 63.8963 53.5655 38.0069
Au 63.8969 11.1021 35.0051
Au 63.9032 72.3728 12.7923
Au 63.9036 34.1269 18.3793
Au 63.9058 56.3685 31.5236
Au 63.9092 9.2187 4.1396
Au 63.9126 75.1758 6.3089
Au 63.9152 59.1715 25.0403
Au 63.9191 14.8276 36.6636
Au 63.9247 61.9745 18.5569
Au 63.9258 37.8524 20.0377
Au 63.9273 45.9703 37.2883
Au 63.9314 12.9441 5.7980
Au 63.9342 64.7775 12.0736
Au 63.9368 48.7733 30.8050
Au 63.9413 18.5531 38.3220
Au 63.9437 67.5805 5.5903
Au 63.9463 51.5763 24.3216
Au 63.9536 16.6696 7.4564
Au 63.9557 54.3793 17.8383
Au 63.9583 38.3750 36.5696
Au 63.9635 22.2785 39.9804
Au 63.9652 57.1823 11.3550
Au 63.9678 41.1780 30.0863
Au 63.9747 59.9853 4.8717
Au 63.9758 20.3951 9.1149
Au 63.9773 43.9810 23.6030
Au 63.9868 46.7840 17.1197
Au 63.9913 1.0958 27.3992
Au 63.9962 49.5870 10.6364
Au 63.9980 24.1206 10.7733
Au 64.0057 52.3900 4.1531
Au 64.0135 4.8213 29.0576
Au 64.0202 27.8460 12.4318
Au 64.0357 8.5467 30.7161
Au 64.0424 31.5715 14.0902
Au 64.0579 12.2722 32.3745
Au 64.0646 35.2970 15.7487
Au 64.0702 10.3888 1.5090
Au 64.0801 15.9977 34.0330
Au 64.0868 39.0224 17.4071
Au 64.0924 14.1142 3.1674
Au 64.1023 19.7231 35.6914
Au 64.1146 17.8397 4.8259
Au 64.1245 23.4486 37.3499
Au 64.1368 21.5652 6.4843
Au 64.1467 27.1741 39.0083
Au 64.1475 73.7233 39.0271
Au 64.1523 2.2659 24.7686
Au 64.1569 76.5262 32.5437
Au 64.1590 25.2906 8.1427
Au 64.1664 79.3292 26.0604
Au 64.1745 5.9913 26.4270
Au 64.1785 66.1280 38.3084
Au 64.1812 29.0161 9.8012
Au 64.1880 68.9310 31.8251
Au 64.1967 9.7168 28.0855
Au 64.1974 71.7340 25.3418
Au 64.2034 32.7416 11.4596
Au 64.2069 74.5370 18.8585
Au 64.2095 58.5327 37.5898
Au 64.2164 77.3400 12.3752
Au 64.2189 13.4423 29.7439
Au 64.2190 61.3357 31.1065
Au 64.2256 36.4671 13.1181
Au 64.2285 64.1387 24.6232
Au 64.2379 66.9417 18.1399
Au 64.2406 50.9375 36.8712
Au 64.2411 17.1678 31.4024
Au 64.2474 69.7447 11.6565
Au 64.2478 40.1925 14.7765
Au 64.2500 53.7405 30.3879
Au 64.2534 15.2843 0.5368
Au 64.2569 72.5477 5.1732
Au 64.2595 56.5435 23.9046
Au 64.2633 20.8932 33.0608
Au 64.2690 59.3465 17.4212
Au 64.2716 43.3422 36.1526
Au 64.2756 19.0098 2.1953
Au 64.2785 62.1495 10.9379
Au 64.2811 46.1452 29.6692
Au 64.2855 24.6187 34.7193
Au 64.2879 64.9525 4.4546
Au 64.2905 48.9482 23.1859
Au 64.2978 22.7353 3.8537
Au 64.3000 51.7512 16.7026
Au 64.3077 28.3442 36.3777
Au 64.3095 54.5542 10.2193
Au 64.3121 38.5500 28.9506
Au 64.3133 3.4359 22.1380
Au 64.3190 57.3572 3.7360
Au 64.3200 26.4607 5.5122
Au 64.3216 41.3530 22.4673
Au 64.3299 32.0696 38.0361
Au 64.3310 44.1560 15.9840
Au 64.3355 7.1614 23.7964
Au 64.3405 46.9590 9.5007
Au 64.3422 30.1862 7.1706
Au 64.3500 49.7619 3.0174
Au 64.3577 10.8869 25.4549
Au 64.3644 33.9117 8.8290
Au 64.3799 14.6124 27.1133
Au 64.3866 37.6371 10.4875
Au 64.4021 18.3378 28.7718
Au 64.4088 41.3626 12.1459
Au 64.4243 22.0633 30.4302
Au 64.4465 25.7888 32.0887
Au 64.4522 0.8806 17.8490
Au 64.4588 23.9053 1.2231
Au 64.4607 78.6905 38.6100
Au 64.4687 29.5143 33.7471
Au 64.4743 4.6060 19.5074
Au 64.4810 27.6308 2.8816
Au 64.4909 33.2397 35.4056
Au 64.4917 71.0952 37.8914
Au 64.4965 8.3315 21.1658
Au 64.5012 73.8982 31.4080
Au 64.5032 31.3563 4.5400
Au 64.5107 76.7012 24.9247
Au 64.5187 12.0570 22.8243
Au 64.5202 79.5042 18.4414
Au 64.5228 63.4999 37.1727
Au 64.5254 35.0818 6.1984
Au 64.5322 66.3029 30.6894
Au 64.5409 15.7825 24.4827
Au 64.5417 69.1059 24.2061
Au 64.5476 38.8072 7.8569
Au 64.5512 71.9089 17.7228
Au 64.5538 55.9047 36.4541
Au 64.5607 74.7119 11.2395
Au 64.5631 19.5079 26.1412
Au 64.5633 58.7077 29.9708
Au 64.5698 42.5327 9.5153
Au 64.5701 77.5149 4.7561
Au 64.5727 61.5107 23.4875
Au 64.5822 64.3137 17.0042
Au 64.5848 48.3094 35.7355
Au 64.5853 23.2334 27.7996
Au 64.5917 67.1167 10.5208
Au 64.5943 51.1124 29.2522
Au 64.6012 69.9197 4.0375
Au 64.6038 53.9154 22.7688
Au 64.6075 26.9589 29.4581
Au 64.6132 2.0506 15.2184
Au 64.6132 56.7184 16.2855
Au 64.6158 40.7142 35.0168
Au 64.6227 59.5214 9.8022
Au 64.6253 43.5172 28.5335
Au 64.6297 30.6843 31.1165
Au 64.6322 62.3244 3.3189
Au 64.6348 46.3202 22.0502
Au 64.6353 5.7761 16.8768
Au 64.6420 28.8009 0.2510
Au 64.6443 49.1232 15.5669
Au 64.6519 34.4098 32.7750
Au 64.6537 51.9262 9.0836
Au 64.6575 9.5016 18.5353
Au 64.6632 54.7291 2.6003
Au 64.6642 32.5264 1.9094
Au 64.6797 13.2271 20.1937
Au 64.6864 36.2518 3.5679
Au 64.7019 16.9525 21.8521
Au 64.7086 39.9773 5.2263
Au 64.7241 20.6780 23.5106
Au 64.7308 43.7028 6.8847
Au 64.7463 24.4035 25.1690
Au 64.7685 28.1290 26.8275
Au 64.7742 3.2207 12.5878
Au 64.7907 31.8544 28.4859
Au 64.7963 6.9462 14.2462
Au 64.8050 76.0624 37.4743
Au 64.8129 35.5799 30.1444
Au 64.8144 78.8654 30.9910
Au 64.8185 10.6717 15.9047
Au 64.8360 68.4671 36.7556
Au 64.8407 14.3972 17.5631
Au 64.8455 71.2701 30.2723
Au 64.8474 37.4219 0.9373
Au 64.8549 74.0731 23.7890
Au 64.8629 18.1226 19.2215
Au 64.8644 76.8761 17.3057
Au 64.8670 60.8719 36.0370
Au 64.8696 41.1474 2.5957
Au 64.8739 79.6791 10.8224
Au 64.8765 63.6749 29.5537
Au 64.8851 21.8481 20.8800
Au 64.8860 66.4779 23.0704
Au 64.8918 44.8729 4.2542
Au 64.8954 69.2809 16.5871
Au 64.8980 53.2766 35.3184
Au 64.9006 2.5488 39.1643
Au 64.9049 72.0839 10.1038
Au 64.9073 25.5736 22.5384
Au 64.9075 56.0796 28.8351
Au 64.9130 0.6653 8.2987
Au 64.9144 74.8869 3.6204
Au 64.9170 58.8826 22.3518
Au 64.9265 61.6856 15.8684
Au 64.9291 45.6814 34.5998
Au 64.9295 29.2990 24.1969
Au 64.9352 4.3908 9.9572
Au 64.9359 64.4886 9.3851
Au 64.9385 48.4844 28.1164
Au 64.9454 67.2916 2.9018
Au 64.9480 51.2874 21.6331
Au 64.9517 33.0245 25.8553
Au 64.9574 8.1163 11.6156
Au 64.9575 54.0904 15.1498
Au 64.9601 38.0861 33.8811
Au 64.9670 56.8934 8.6665
Au 64.9696 40.8891 27.3978
Au 64.9739 36.7500 27.5138
Au 64.9765 59.6963 2.1832
Au 64.9791 43.6921 20.9145
Au 64.9795 11.8418 13.2741
Au 64.9885 46.4951 14.4312
Au 64.9980 49.2981 7.9479
Au 65.0017 15.5672 14.9325
Au 65.0075 52.1011 1.4646
Au 65.0239 19.2927 16.5910
Au 65.0461 23.0182 18.2494
Au 65.0528 46.0430 1.6236
Au 65.0616 3.7189 36.5337
Au 65.0683 26.7437 19.9078
Au 65.0740 1.8354 5.6681
Au 65.0838 7.4444 38.1921
Au 65.0905 30.4691 21.5663
Au 65.0962 5.5609 7.3266
Au 65.1060 11.1698 39.8506
Au 65.1127 34.1946 23.2247
Au 65.1184 9.2864 8.9850
Au 65.1349 37.9201 24.8832
Au 65.1405 13.0118 10.6435
Au 65.1492 73.4343 36.3386
Au 65.1587 76.2373 29.8552
Au 65.1627 16.7373 12.3019
Au 65.1682 79.0403 23.3719
Au 65.1802 65.8391 35.6199
Au 65.1849 20.4628 13.9604
Au 65.1897 68.6421 29.1366
Au 65.1992 71.4451 22.6533
Au 65.2004 1.1635 32.2446
Au 65.2071 24.1883 15.6188
Au 65.2087 74.2481 16.1700
Au 65.2113 58.2438 34.9013
Au 65.2182 77.0511 9.6867
Au 65.2208 61.0468 28.4180
Au 65.2226 4.8890 33.9031
Au 65.2276 79.8541 3.2034
Au 65.2293 27.9137 17.2773
Au 65.2302 63.8498 21.9347
Au 65.2350 3.0055 3.0375
Au 65.2397 66.6528 15.4514
Au 65.2423 50.6486 34.1827
Au 65.2448 8.6144 35.5615
Au 65.2492 69.4558 8.9680
Au 65.2515 31.6392 18.9357
Au 65.2518 53.4516 27.6994
Au 65.2572 6.7310 4.6960
Au 65.2587 72.2588 2.4847
Au 65.2613 56.2546 21.2160
Au 65.2639 40.2503 39.9474
Au 65.2670 12.3399 37.2200
Au 65.2707 59.0576 14.7327
Au 65.2733 43.0533 33.4641
Au 65.2737 35.3647 20.5941
Au 65.2794 10.4565 6.3544
Au 65.2802 61.8605 8.2494
Au 65.2828 45.8563 26.9807
Au 65.2892 16.0654 38.8784
Au 65.2897 64.6635 1.7661
Au 65.2923 48.6593 20.4974
Au 65.2959 39.0902 22.2526
Au 65.3016 14.1819 8.0129
Au 65.3018 51.4623 14.0141
Au 65.3112 54.2653 7.5308
Au 65.3207 57.0683 1.0475
Au 65.3233 41.0640 19.7788
Au 65.3237 17.9074 9.6713
Au 65.3328 43.8670 13.2955
Au 65.3423 46.6700 6.8122
Au 65.3459 21.6329 11.3298
Au 65.3517 49.4730 0.3288
Au 65.3614 2.3336 29.6141
Au 65.3681 25.3584 12.9882
Au 65.3836 6.0590 31.2725
Au 65.3903 29.0838 14.6467
Au 65.3960 4.1756 0.4069
Au 65.4058 9.7845 32.9309
Au 65.4125 32.8093 16.3051
Au 65.4182 7.9011 2.0654
Au 65.4280 13.5100 34.5894
Au 65.4347 36.5348 17.9636
Au 65.4404 11.6265 3.7238
Au 65.4502 17.2355 36.2478
Au 65.4625 78.4015 35.9215
Au 65.4626 15.3520 5.3823
Au 65.4724 20.9609 37.9063
Au 65.4847 19.0775 7.0407
Au 65.4935 70.8063 35.2028
Au 65.4946 24.6864 39.5647
Au 65.5030 73.6093 28.7195
Au 65.5069 22.8030 8.6992
Au 65.5124 76.4123 22.2362
Au 65.5219 79.2153 15.7529
Au 65.5225 3.5037 26.9835
Au 65.5245 63.2110 34.4842
Au 65.5291 26.5284 10.3576
Au 65.5340 66.0140 28.0009
Au 65.5435 68.8170 21.5176
Au 65.5446 7.2291 28.6419
Au 65.5513 30.2539 12.0161
Au 65.5529 71.6200 15.0343
Au 65.5555 55.6158 33.7656
Au 65.5624 74.4230 8.5510
Au 65.5650 58.4188 27.2823
Au 65.5668 10.9546 30.3004
Au 65.5719 77.2260 2.0676
Au 65.5735 33.9794 13.6745
Au 65.5745 61.2218 20.7990
Au 65.5771 45.2175 39.5303
Au 65.5840 64.0248 14.3156
Au 65.5866 48.0205 33.0470
Au 65.5890 14.6801 31.9588
Au 65.5934 66.8277 7.8323
Au 65.5957 37.7049 15.3330
Au 65.5960 50.8235 26.5637
Au 65.6014 12.7966 1.0932
Au 65.6029 69.6307 1.3490
Au 65.6055 53.6265 20.0803
Au 65.6081 37.6223 38.8117
Au 65.6112 18.4056 33.6172
Au 65.6150 56.4295 13.5970
Au 65.6176 40.4253 32.3283
Au 65.6179 41.4303 16.9914
Au 65.6236 16.5221 2.7517
Au 65.6245 59.2325 7.1137
Au 65.6271 43.2283 25.8450
Au 65.6334 22.1310 35.2757
Au 65.6339 62.0355 0.6304
Au 65.6365 46.0312 19.3617
Au 65.6457 20.2476 4.4101
Au 65.6460 48.8342 12.8784
Au 65.6555 51.6372 6.3951
Au 65.6556 25.8565 36.9341
Au 65.6613 0.9483 22.6944
Au 65.6679 23.9731 6.0686
Au 65.6778 29.5820 38.5926
Au 65.6835 4.6737 24.3529
Au 65.6901 27.6985 7.7270
Au 65.7056 8.3992 26.0113
Au 65.7123 31.4240 9.3855
Au 65.7278 12.1247 27.6698
Au 65.7345 35.1495 11.0439
Au 65.7500 15.8502 29.3282
Au 65.7567 38.8749 12.7024
Au 65.7722 19.5756 30.9867
Au 65.7846 17.6922 0.1211
Au 65.7944 23.3011 32.6451
Au 65.8067 75.7735 34.7858
Au 65.8068 21.4177 1.7795
Au 65.8162 78.5765 28.3024
Au 65.8166 27.0266 34.3035
Au 65.8223 2.1184 20.0638
Au 65.8289 25.1431 3.4380
Au 65.8377 68.1782 34.0671
Au 65.8388 30.7521 35.9620
Au 65.8445 5.8438 21.7223
Au 65.8472 70.9812 27.5838
Au 65.8511 28.8686 5.0964
Au 65.8567 73.7842 21.1005
Au 65.8593 57.7800 39.8318
Au 65.8662 76.5872 14.6172
Au 65.8666 9.5693 23.3807
Au 65.8688 60.5830 33.3485
Au 65.8733 32.5941 6.7549
Au 65.8756 79.3902 8.1339
Au 65.8782 63.3860 26.8652
Au 65.8877 66.1890 20.3819
Au 65.8888 13.2948 25.0392
Au 65.8903 50.1847 39.1132
Au 65.8955 36.3196 8.4133
Au 65.8972 68.9919 13.8986
Au 65.8998 52.9877 32.6299
Au 65.9067 71.7949 7.4152
Au 65.9093 55.7907 26.1466
Au 65.9110 17.0203 26.6976
Au 65.9161 74.5979 0.9319
Au 65.9177 40.0450 10.0718
Au 65.9187 58.5937 19.6633
Au 65.9213 42.5895 38.3946
Au 65.9282 61.3967 13.1799
Au 65.9308 45.3925 31.9113
Au 65.9332 20.7457 28.3561
Au 65.9377 64.1997 6.6966
Au 65.9403 48.1954 25.4279
Au 65.9472 67.0027 0.2133
Au 65.9498 50.9984 18.9446
Au 65.9524 34.9942 37.6760
Au 65.9554 24.4712 30.0145
Au 65.9593 53.8014 12.4613
Au 65.9619 37.7972 31.1926
Au 65.9687 56.6044 5.9780
Au 65.9713 40.6002 24.7093
Au 65.9776 28.1967 31.6729
Au 65.9808 43.4032 18.2260
Au 65.9833 3.2884 17.4332
Au 65.9899 26.3132 0.8074
Au 65.9903 46.2062 11.7427
Au 65.9998 49.0092 5.2594
Au 65.9998 31.9221 33.3314
Au 66.0055 7.0139 19.0917
Au 66.0121 30.0387 2.4658
Au 66.0277 10.7394 20.7501
Au 66.0343 33.7642 4.1243
Au 66.0498 14.4649 22.4086
Au 66.0565 37.4896 5.7827
Au 66.0720 18.1903 24.0670
Au 66.0787 41.2151 7.4412
Au 66.0942 21.9158 25.7255
Au 66.1164 25.6413 27.3839
Au 66.1221 0.7331 13.1442
Au 66.1386 29.3668 29.0424
Au 66.1443 4.4585 14.8026
Au 66.1510 73.1454 33.6501
Au 66.1604 75.9484 27.1667
Au 66.1608 33.0922 30.7008
Au 66.1665 8.1840 16.4611
Au 66.1699 78.7514 20.6834
Au 66.1725 62.7472 39.4147
Au 66.1820 65.5502 32.9314
Au 66.1887 11.9095 18.1195
Au 66.1915 68.3532 26.4481
Au 66.1953 34.9343 1.4937
Au 66.2010 71.1562 19.9648
Au 66.2036 55.1519 38.6961
Au 66.2104 73.9591 13.4815
Au 66.2108 15.6349 19.7780
Au 66.2130 57.9549 32.2128
Au 66.2175 38.6597 3.1521
Au 66.2199 76.7621 6.9982
Au 66.2225 60.7579 25.7295
Au 66.2294 79.5651 0.5148
Au 66.2320 63.5609 19.2462
Au 66.2330 19.3604 21.4364
Au 66.2346 47.5567 37.9775
Au 66.2397 42.3852 4.8106
Au 66.2415 66.3639 12.7629
Au 66.2441 50.3597 31.4942
Au 66.2486 0.0611 39.7207
Au 66.2509 69.1669 6.2795
Au 66.2535 53.1626 25.0109
Au 66.2552 23.0859 23.0949
Au 66.2630 55.9656 18.5275
Au 66.2656 39.9614 37.2589
Au 66.2725 58.7686 12.0442
Au 66.2751 42.7644 30.7756
Au 66.2774 26.8114 24.7533
Au 66.2820 61.5716 5.5609
Au 66.2831 1.9031 10.5136
Au 66.2846 45.5674 24.2922
Au 66.2940 48.3704 17.8089
Au 66.2996 30.5368 26.4118
Au 66.3035 51.1734 11.3256
Au 66.3053 5.6286 12.1721
Au 66.3130 53.9764 4.8423
Au 66.3218 34.2623 28.0702
Au 66.3275 9.3541 13.8305
Au 66.3440 46.3811 4.1237
Au 66.3497 13.0796 15.4889
Au 66.3719 16.8050 17.1474
Au 66.3785 39.8298 0.5215
Au 66.3940 20.5305 18.8058
Au 66.4007 43.5553 2.1800
Au 66.4096 1.2312 37.0901
Au 66.4162 24.2560 20.4643
Au 66.4317 4.9567 38.7486
Au 66.4384 27.9815 22.1227
Au 66.4441 3.0732 7.8830
Au 66.4547 75.3096 39.7163
Au 66.4606 31.7069 23.7812
Au 66.4642 78.1126 33.2330
Au 66.4663 6.7987 9.5415
Au 66.4828 35.4324 25.4396
Au 66.4858 67.7144 38.9977
Au 66.4885 10.5242 11.1999
Au 66.4952 70.5174 32.5143
Au 66.5047 73.3204 26.0310
Au 66.5107 14.2496 12.8583
Au 66.5142 76.1233 19.5477
Au 66.5168 60.1191 38.2790
Au 66.5237 78.9263 13.0644
Au 66.5263 62.9221 31.7957
Au 66.5329 17.9751 14.5168
Au 66.5357 65.7251 25.3124
Au 66.5452 68.5281 18.8291
Au 66.5478 52.5239 37.5604
Au 66.5547 71.3311 12.3458
Au 66.5550 21.7006 16.1752
Au 66.5573 55.3268 31.0771
Au 66.5642 74.1341 5.8625
Au 66.5668 58.1298 24.5938
Au 66.5706 2.4013 34.4595
Au 66.5762 60.9328 18.1105
Au 66.5772 25.4261 17.8337
Au 66.5788 44.9286 36.8418
Au 66.5829 0.5178 3.5940
Au 66.5857 63.7358 11.6271
Au 66.5883 47.7316 30.3585
Au 66.5928 6.1268 36.1180
Au 66.5952 66.5388 5.1438
Au 66.5978 50.5346 23.8752
Au 66.5994 29.1515 19.4921
Au 66.6051 4.2433 5.2524
Au 66.6073 53.3376 17.3918
Au 66.6099 37.3333 36.1232
Au 66.6149 9.8522 37.7764
Au 66.6167 56.1406 10.9085
Au 66.6193 40.1363 29.6398
Au 66.6216 32.8770 21.1506
Au 66.6262 58.9436 4.4252
Au 66.6273 7.9688 6.9109
Au 66.6288 42.9393 23.1565
Au 66.6371 13.5777 39.4349
Au 66.6383 45.7423 16.6732
Au 66.6438 36.6025 22.8090
Au 66.6478 48.5453 10.1899
Au 66.6495 11.6943 8.5693
Au 66.6572 51.3483 3.7066
Au 66.6717 15.4197 10.2278
Au 66.6939 19.1452 11.8862
Au 66.7160 22.8707 13.5446
Au 66.7316 3.5714 31.8289
Au 66.7382 26.5962 15.2031
Au 66.7439 1.6879 0.9634
Au 66.7538 7.2968 33.4874
Au 66.7604 30.3216 16.8615
Au 66.7661 5.4134 2.6218
Au 66.7759 11.0223 35.1458
Au 66.7826 34.0471 18.5200
Au 66.7883 9.1389 4.2803
Au 66.7981 14.7478 36.8043
Au 66.7990 72.6816 38.5806
Au 66.8048 37.7726 20.1784
Au 66.8085 75.4846 32.0973
Au 66.8105 12.8643 5.9387
Au 66.8179 78.2876 25.6139
Au 66.8203 18.4733 38.4627
Au 66.8300 65.0863 37.8620
Au 66.8327 16.5898 7.5972
Au 66.8395 67.8893 31.3786
Au 66.8490 70.6923 24.8953
Au 66.8549 20.3153 9.2556
Au 66.8584 73.4953 18.4120
Au 66.8610 57.4911 37.1433
Au 66.8679 76.2983 11.9287
Au 66.8704 1.0160 27.5399
Au 66.8705 60.2940 30.6600
Au 66.8771 24.0408 10.9141
Au 66.8774 79.1013 5.4454
Au 66.8800 63.0970 24.1767
Au 66.8895 65.9000 17.6934
Au 66.8921 49.8958 36.4247
Au 66.8926 4.7415 29.1983
Au 66.8989 68.7030 11.2101
Au 66.8992 27.7662 12.5725
Au 66.9015 52.6988 29.9414
Au 66.9084 71.5060 4.7267
Au 66.9110 55.5018 23.4581
Au 66.9148 8.4669 30.8568
Au 66.9205 58.3048 16.9748
Au 66.9214 31.4917 14.2309
Au 66.9231 42.3005 35.7061
Au 66.9300 61.1078 10.4914
Au 66.9326 45.1035 29.2228
Au 66.9369 12.1924 32.5152
Au 66.9395 63.9108 4.0081
Au 66.9421 47.9065 22.7394
Au 66.9436 35.2172 15.8894
Au 66.9493 10.3090 1.6497
Au 66.9515 50.7095 16.2561
Au 66.9591 15.9179 34.1737
Au 66.9610 53.5125 9.7728
Au 66.9636 37.5083 28.5041
Au 66.9658 38.9427 17.5478
Au 66.9705 56.3155 3.2895
Au 66.9715 14.0344 3.3081
Au 66.9731 40.3113 22.0208
Au 66.9813 19.6434 35.8321
Au 66.9920 45.9173 9.0542
Au 66.9937 17.7599 4.9666
Au 67.0015 48.7203 2.5709
Au 67.0035 23.3688 37.4906
Au 67.0159 21.4854 6.6250
Au 67.0257 27.0943 39.1490
Au 67.0314 2.1861 24.9093
Au 67.0381 25.2109 8.2835
Au 67.0536 5.9115 26.5677
Au 67.0602 28.9363 9.9419
Au 67.0758 9.6370 28.2262
Au 67.0824 32.6618 11.6004
Au 67.0980 13.3625 29.8846
Au 67.1046 36.3873 13.2588
Au 67.1122 77.6488 38.1635
Au 67.1201 17.0880 31.5431
Au 67.1268 40.1127 14.9172
Au 67.1325 15.2045 0.6775
Au 67.1423 20.8134 33.2015
Au 67.1432 70.0535 37.4449
Au 67.1527 72.8565 30.9616
Au 67.1547 18.9300 2.3360
Au 67.1622 75.6595 24.4782
Au 67.1645 24.5389 34.8600
Au 67.1717 78.4625 17.9949
Au 67.1743 62.4583 36.7262
Au 67.1769 22.6555 3.9944
Au 67.1838 65.2612 30.2429
Au 67.1867 28.2644 36.5184
Au 67.1924 3.3562 22.2787
Au 67.1932 68.0642 23.7596
Au 67.1991 26.3809 5.6529
Au 67.2027 70.8672 17.2763
Au 67.2053 54.8630 36.0076
Au 67.2089 31.9899 38.1769
Au 67.2122 73.6702 10.7930
Au 67.2146 7.0816 23.9372
Au 67.2148 57.6660 29.5243
Au 67.2213 30.1064 7.3113
Au 67.2217 76.4732 4.3097
Au 67.2243 60.4690 23.0410
Au 67.2337 63.2720 16.5577
Au 67.2363 47.2677 35.2890
Au 67.2368 10.8071 25.5956
Au 67.2432 66.0750 10.0744
Au 67.2434 33.8319 8.9698
Au 67.2458 50.0707 28.8057
Au 67.2527 68.8780 3.5910
Au 67.2553 52.8737 22.3224
Au 67.2590 14.5326 27.2540
Au 67.2648 55.6767 15.8390
Au 67.2656 37.5574 10.6282
Au 67.2674 39.6725 34.5704
Au 67.2742 58.4797 9.3557
Au 67.2768 42.4755 28.0870
Au 67.2811 18.2580 28.9125
Au 67.2837 61.2827 2.8724
Au 67.2863 45.2785 21.6037
Au 67.2878 41.2828 12.2867
Au 67.2958 48.0815 15.1204
Au 67.3033 21.9835 30.5709
Au 67.3053 50.8845 8.6371
Au 67.3147 53.6875 2.1538
Au 67.3255 25.7090 32.2294
Au 67.3312 0.8008 17.9897
Au 67.3379 23.8255 1.3638
Au 67.3477 29.4345 33.8878
Au 67.3534 4.5262 19.6481
Au 67.3601 27.5510 3.0223
Au 67.3699 33.1599 35.5463
Au 67.3756 8.2517 21.3066
Au 67.3823 31.2765 4.6807
Au 67.3978 11.9772 22.9650
Au 67.4044 35.0020 6.3392
Au 67.4200 15.7027 24.6235
Au 67.4266 38.7274 7.9976
Au 67.4422 19.4281 26.2819
Au 67.4488 42.4529 9.6561
Au 67.4565 75.0207 37.0278
Au 67.4643 23.1536 27.9403
Au 67.4660 77.8237 30.5445
Au 67.4865 26.8791 29.5988
Au 67.4875 67.4254 36.3092
Au 67.4922 1.9709 15.3591
Au 67.4970 70.2284 29.8258
Au 67.5065 73.0314 23.3425
Au 67.5087 30.6046 31.2572
Au 67.5144 5.6963 17.0175
Au 67.5159 75.8344 16.8592
Au 67.5185 59.8302 35.5905
Au 67.5211 28.7211 0.3917
Au 67.5254 78.6374 10.3759
Au 67.5280 62.6332 29.1072
Au 67.5309 34.3300 32.9157
Au 67.5366 9.4218 18.6760
Au 67.5375 65.4362 22.6239
Au 67.5433 32.4466 2.0501
Au 67.5470 68.2392 16.1406
Au 67.5496 52.2349 34.8719
Au 67.5564 71.0422 9.6573
Au 67.5588 13.1473 20.3344
Au 67.5590 55.0379 28.3886
Au 67.5654 36.1721 3.7086
Au 67.5659 73.8452 3.1739
Au 67.5685 57.8409 21.9053
Au 67.5780 60.6439 15.4220
Au 67.5806 44.6397 34.1533
Au 67.5810 16.8727 21.9929
Au 67.5875 63.4469 8.9386
Au 67.5876 39.8975 5.3670
Au 67.5901 47.4427 27.6700
Au 67.5969 66.2499 2.4553
Au 67.5995 50.2457 21.1866
Au 67.6021 34.2414 39.9180
Au 67.6032 20.5982 23.6513
Au 67.6090 53.0487 14.7033
Au 67.6098 43.6230 7.0255
Au 67.6116 37.0444 33.4347
Au 67.6185 55.8517 8.2200
Au 67.6211 39.8474 26.9513
Au 67.6253 24.3237 25.3098
Au 67.6280 58.6547 1.7367
Au 67.6306 42.6504 20.4680
Au 67.6400 45.4534 13.9847
Au 67.6475 28.0492 26.9682
Au 67.6495 48.2564 7.5014
Au 67.6532 3.1409 12.7285
Au 67.6590 51.0594 1.0181
Au 67.6697 31.7746 28.6266
Au 67.6754 6.8664 14.3869
Au 67.6919 35.5001 30.2851
Au 67.6976 10.5919 16.0454
Au 67.7198 14.3174 17.7038
Au 67.7265 37.3421 1.0780
Au 67.7420 18.0428 19.3623
Au 67.7486 41.0676 2.7364
Au 67.7642 21.7683 21.0207
Au 67.7697 79.9879 36.6107
Au 67.7708 44.7931 4.3949
Au 67.7797 2.4690 39.3050
Au 67.7863 25.4938 22.6792
Au 67.7920 0.5856 8.4394
Au 67.8007 72.3926 35.8921
Au 67.8085 29.2193 24.3376
Au 67.8102 75.1956 29.4088
Au 67.8142 4.3110 10.0979
Au 67.8197 77.9986 22.9254
Au 67.8307 32.9447 25.9960
Au 67.8318 64.7974 35.1734
Au 67.8364 8.0365 11.7563
Au 67.8412 67.6004 28.6901
Au 67.8507 70.4034 22.2068
Au 67.8586 11.7620 13.4148
Au 67.8602 73.2064 15.7235
Au 67.8628 57.2021 34.4548
Au 67.8697 76.0094 9.2402
Au 67.8723 60.0051 27.9715
Au 67.8791 78.8124 2.7569
Au 67.8808 15.4874 15.0732
Au 67.8817 62.8081 21.4882
Au 67.8912 65.6111 15.0049
Au 67.8938 49.6069 33.7362
Au 67.9007 68.4141 8.5216
Au 67.9030 19.2129 16.7317
Au 67.9033 52.4099 27.2529
Au 67.9096 42.2377 0.1058
Au 67.9102 71.2171 2.0382
Au 67.9128 55.2129 20.7696
Au 67.9154 39.2086 39.5009
Au 67.9223 58.0159 14.2862
Au 67.9249 42.0116 33.0176
Au 67.9252 22.9384 18.3901
Au 67.9317 60.8189 7.8029
Au 67.9318 45.9632 1.7643
Au 67.9343 44.8146 26.5343
Au 67.9407 3.6391 36.6744
Au 67.9412 63.6219 1.3196
Au 67.9438 47.6176 20.0509
Au 67.9474 26.6639 20.0486
Au 67.9530 1.7556 5.8089
Au 67.9533 50.4206 13.5676
Au 67.9628 53.2236 7.0843
Au 67.9629 7.3646 38.3329
Au 67.9695 30.3893 21.7070
Au 67.9722 56.0266 0.6010
Au 67.9752 5.4811 7.4673
Au 67.9851 11.0900 39.9913
Au 67.9917 34.1148 23.3655
Au 67.9938 45.6283 6.3657
Au 67.9974 9.2066 9.1257
Au 68.0139 37.8403 25.0239
Au 68.0196 12.9321 10.7842
Au 68.0418 16.6575 12.4426
Au 68.0640 20.3830 14.1011
Au 68.0795 1.0837 32.3854
Au 68.0862 24.1085 15.7595
Au 68.1017 4.8092 34.0438
Au 68.1084 27.8340 17.4180
Au 68.1140 77.3598 35.4750
Au 68.1140 2.9257 3.1783
Au 68.1239 8.5346 35.7023
Au 68.1305 31.5594 19.0764
Au 68.1362 6.6512 4.8367
Au 68.1450 69.7646 34.7564
Au 68.1461 12.2601 37.3607
Au 68.1527 35.2849 20.7349
Au 68.1545 72.5676 28.2730
Au 68.1584 10.3767 6.4952
Au 68.1640 75.3706 21.7897
Au 68.1683 15.9856 39.0191
Au 68.1734 78.1736 15.3064
Au 68.1749 39.0104 22.3933
Au 68.1760 62.1693 34.0377
Au 68.1806 14.1021 8.1536
Au 68.1855 64.9723 27.5544
Au 68.1950 67.7753 21.0711
Au 68.1976 51.7711 39.8024
Au 68.2028 17.8276 9.8120
Au 68.2045 70.5783 14.5878
Au 68.2071 54.5741 33.3191
Au 68.2139 73.3813 8.1045
Au 68.2165 57.3771 26.8358
Au 68.2234 76.1843 1.6212
Au 68.2250 21.5531 11.4705
Au 68.2260 60.1801 20.3525
Au 68.2286 44.1758 39.0838
Au 68.2355 62.9831 13.8692
Au 68.2381 46.9788 32.6005
Au 68.2405 2.2538 29.7548
Au 68.2450 65.7861 7.3858
Au 68.2472 25.2786 13.1289
Au 68.2476 49.7818 26.1172
Au 68.2544 68.5890 0.9025
Au 68.2570 52.5848 19.6339
Au 68.2596 36.5806 38.3652
Au 68.2627 5.9793 31.4132
Au 68.2665 55.3878 13.1505
Au 68.2691 39.3836 31.8819
Au 68.2694 29.0040 14.7874
Au 68.2750 4.0958 0.5477
Au 68.2760 58.1908 6.6672
Au 68.2786 42.1866 25.3985
Au 68.2849 9.7047 33.0717
Au 68.2855 60.9938 0.1839
Au 68.2881 44.9896 18.9152
Au 68.2916 32.7295 16.4458
Au 68.2972 7.8213 2.2061
Au 68.2975 47.7925 12.4319
Au 68.3070 50.5955 5.9486
Au 68.3071 13.4302 34.7301
Au 68.3137 36.4550 18.1043
Au 68.3194 11.5468 3.8646
Au 68.3293 17.1557 36.3886
Au 68.3416 15.2722 5.5230
Au 68.3514 20.8811 38.0470
Au 68.3638 18.9977 7.1814
Au 68.3736 24.6066 39.7054
Au 68.3860 22.7232 8.8399
Au 68.4015 3.4239 27.1242
Au 68.4082 26.4486 10.4983
Au 68.4237 7.1493 28.7826
Au 68.4304 30.1741 12.1568
Au 68.4459 10.8748 30.4411
Au 68.4526 33.8996 13.8152
Au 68.4582 74.7318 34.3393
Au 68.4677 77.5348 27.8560
Au 68.4681 14.6003 32.0995
Au 68.4747 37.6251 15.4737
Au 68.4804 12.7168 1.2340
Au 68.4893 67.1365 33.6207
Au 68.4903 18.3258 33.7580
Au 68.4987 69.9395 27.1373
Au 68.5026 16.4423 2.8924
Au 68.5082 72.7425 20.6540
Au 68.5108 56.7383 39.3853
Au 68.5125 22.0512 35.4164
Au 68.5177 75.5455 14.1707
Au 68.5203 59.5413 32.9020
Au 68.5248 20.1678 4.5509
Au 68.5272 78.3485 7.6874
Au 68.5298 62.3443 26.4187
Au 68.5346 25.7767 37.0749
Au 68.5392 65.1473 19.9354
Au 68.5403 0.8685 22.8351
Au 68.5418 49.1430 38.6667
Au 68.5470 23.8933 6.2093
Au 68.5487 67.9503 13.4521
Au 68.5513 51.9460 32.1834
Au 68.5568 29.5022 38.7333
Au 68.5582 70.7533 6.9688
Au 68.5608 54.7490 25.7001
Au 68.5625 4.5940 24.4936
Au 68.5677 73.5562 0.4854
Au 68.5692 27.6187 7.8677
Au 68.5703 57.5520 19.2168
Au 68.5729 41.5478 37.9481
Au 68.5797 60.3550 12.7335
Au 68.5823 44.3508 31.4648
Au 68.5847 8.3194 26.1520
Au 68.5892 63.1580 6.2501
Au 68.5914 31.3442 9.5262
Au 68.5918 47.1538 24.9815
Au 68.6013 49.9568 18.4981
Au 68.6039 33.9525 37.2295
Au 68.6069 12.0449 27.8105
Au 68.6108 52.7597 12.0148
Au 68.6136 35.0697 11.1846
Au 68.6202 55.5627 5.5315
Au 68.6228 39.5585 24.2628
Au 68.6291 15.7704 29.4689
Au 68.6323 42.3615 17.7795
Au 68.6357 38.7952 12.8431
Au 68.6418 45.1645 11.2962
Au 68.6513 19.4958 31.1274
Au 68.6513 47.9675 4.8129
Au 68.6636 17.6124 0.2618
Au 68.6735 23.2213 32.7858
Au 68.6858 21.3379 1.9203
Au 68.6956 26.9468 34.4443
Au 68.7013 2.0386 20.2045
Au 68.7080 25.0633 3.5787
Au 68.7178 30.6723 36.1027
Au 68.7235 5.7640 21.8630
Au 68.7302 28.7888 5.2372
Au 68.7457 9.4895 23.5214
Au 68.7524 32.5143 6.8956
Au 68.7679 13.2150 25.1799
Au 68.7715 79.6990 33.9222
Au 68.7746 36.2398 8.5540
Au 68.7901 16.9405 26.8383
Au 68.7930 69.3007 39.6869
Au 68.7968 39.9652 10.2125
Au 68.8025 72.1037 33.2036
Au 68.8120 74.9067 26.7203
Au 68.8123 20.6659 28.4968
Au 68.8214 77.7097 20.2369
Au 68.8240 61.7055 38.9683
Au 68.8335 64.5085 32.4849
Au 68.8345 24.3914 30.1552
Au 68.8430 67.3115 26.0016
Au 68.8525 70.1145 19.5183
Au 68.8551 54.1102 38.2496
Au 68.8566 28.1169 31.8137
Au 68.8619 72.9175 13.0350
Au 68.8623 3.2087 17.5740
Au 68.8645 56.9132 31.7663
Au 68.8690 26.2334 0.9481
Au 68.8714 75.7204 6.5517
Au 68.8740 59.7162 25.2830
Au 68.8788 31.8424 33.4721
Au 68.8809 78.5234 0.0684
Au 68.8835 62.5192 18.7997
Au 68.8845 6.9341 19.2324
Au 68.8861 46.5150 37.5310
Au 68.8912 29.9589 2.6066
Au 68.8930 65.3222 12.3164
Au 68.8956 49.3180 31.0477
Au 68.9025 68.1252 5.8331
Au 68.9051 52.1210 24.5644
Au 68.9067 10.6596 20.8908
Au 68.9134 33.6844 4.2650
Au 68.9145 54.9239 18.0811
Au 68.9171 38.9197 36.8124
Au 68.9240 57.7269 11.5977
Au 68.9266 41.7227 30.3291
Au 68.9289 14.3851 22.5493
Au 68.9335 60.5299 5.1144
Au 68.9356 37.4099 5.9235
Au 68.9361 44.5257 23.8457
Au 68.9456 47.3287 17.3624
Au 68.9511 18.1105 24.2077
Au 68.9550 50.1317 10.8791
Au 68.9578 41.1353 7.5819
Au 68.9645 52.9347 4.3958
Au 68.9733 21.8360 25.8662
Au 68.9955 25.5615 27.5246
Au 69.0011 0.6533 13.2849
Au 69.0177 29.2870 29.1831
Au 69.0233 4.3787 14.9434
Au 69.0398 33.0124 30.8415
Au 69.0455 8.1042 16.6018
Au 69.0677 11.8297 18.2603
Au 69.0744 34.8545 1.6344
Au 69.0899 15.5552 19.9187
Au 69.0966 38.5799 3.2929
Au 69.1062 74.2679 39.2698
Au 69.1121 19.2806 21.5771
Au 69.1157 77.0709 32.7865
Au 69.1188 42.3054 4.9513
Au 69.1252 79.8739 26.3032
Au 69.1343 23.0061 23.2356
Au 69.1373 66.6727 38.5512
Au 69.1468 69.4757 32.0679
Au 69.1562 72.2787 25.5845
Au 69.1565 26.7316 24.8940
Au 69.1621 1.8234 10.6543
Au 69.1657 75.0817 19.1012
Au 69.1683 59.0774 37.8325
Au 69.1752 77.8847 12.6179
Au 69.1778 61.8804 31.3492
Au 69.1787 30.4570 26.5525
Au 69.1843 5.5488 12.3128
Au 69.1873 64.6834 24.8659
Au 69.1967 67.4864 18.3826
Au 69.1993 51.4822 37.1139
Au 69.2008 34.1825 28.2109
Au 69.2062 70.2894 11.8993
Au 69.2065 9.2743 13.9712
Au 69.2088 54.2852 30.6306
Au 69.2157 73.0924 5.4160
Au 69.2183 57.0882 24.1473
Au 69.2278 59.8911 17.6640
Au 69.2287 12.9998 15.6297
Au 69.2304 43.8869 36.3953
Au 69.2372 62.6941 11.1807
Au 69.2398 46.6899 29.9120
Au 69.2467 65.4971 4.6973
Au 69.2493 49.4929 23.4287
Au 69.2509 16.7252 17.2881
Au 69.2576 39.7500 0.6623
Au 69.2588 52.2959 16.9453
Au 69.2614 36.2917 35.6767
Au 69.2683 55.0989 10.4620
Au 69.2709 39.0946 29.1934
Au 69.2731 20.4507 18.9466
Au 69.2777 57.9019 3.9787
Au 69.2798 43.4755 2.3207
Au 69.2803 41.8976 22.7100
Au 69.2886 1.1514 37.2308
Au 69.2898 44.7006 16.2267
Au 69.2953 24.1762 20.6050
Au 69.2993 47.5036 9.7434
Au 69.3088 50.3066 3.2601
Au 69.3108 4.8769 38.8893
Au 69.3175 27.9017 22.2634
Au 69.3231 2.9934 8.0237
Au 69.3397 31.6271 23.9219
Au 69.3453 6.7189 9.6822
Au 69.3619 35.3526 25.5803
Au 69.3675 10.4444 11.3406
Au 69.3897 14.1699 12.9991
Au 69.4119 17.8953 14.6575
Au 69.4195 79.2351 38.8527
Au 69.4341 21.6208 16.3160
Au 69.4496 2.3215 34.6002
Au 69.4505 71.6399 38.1341
Au 69.4563 25.3463 17.9744
Au 69.4600 74.4429 31.6508
Au 69.4619 0.4380 3.7347
Au 69.4695 77.2459 25.1675
Au 69.4718 6.0470 36.2587
Au 69.4785 29.0717 19.6328
Au 69.4815 64.0446 37.4155
Au 69.4841 4.1635 5.3931
Au 69.4910 66.8476 30.9321
Au 69.4940 9.7724 37.9171
Au 69.5005 69.6506 24.4488
Au 69.5007 32.7972 21.2913
Au 69.5063 7.8890 7.0516
Au 69.5100 72.4536 17.9655
Au 69.5126 56.4494 36.6968
Au 69.5162 13.4979 39.5756
Au 69.5194 75.2566 11.4822
Au 69.5220 59.2524 30.2135
Au 69.5229 36.5227 22.9497
Au 69.5285 11.6145 8.7100
Au 69.5289 78.0596 4.9989
Au 69.5315 62.0554 23.7302
Au 69.5410 64.8583 17.2469
Au 69.5436 48.8541 35.9782
Au 69.5505 67.6613 10.7636
Au 69.5507 15.3399 10.3685
Au 69.5531 51.6571 29.4949
Au 69.5599 70.4643 4.2803
Au 69.5625 54.4601 23.0116
Au 69.5720 57.2631 16.5283
Au 69.5729 19.0654 12.0269
Au 69.5746 41.2589 35.2596
Au 69.5815 60.0661 10.0449
Au 69.5841 44.0618 28.7763
Au 69.5910 62.8691 3.5616
Au 69.5936 46.8648 22.2930
Au 69.5951 22.7909 13.6854
Au 69.6031 49.6678 15.8096
Au 69.6106 3.4916 31.9697
Au 69.6125 52.4708 9.3263
Au 69.6173 26.5164 15.3438
Au 69.6220 55.2738 2.8430
Au 69.6229 1.6081 1.1041
Au 69.6328 7.2171 33.6281
Au 69.6341 42.0726 15.0910
Au 69.6395 30.2418 17.0023
Au 69.6436 44.8756 8.6077
Au 69.6451 5.3336 2.7625
Au 69.6530 47.6786 2.1244
Au 69.6550 10.9425 35.2865
Au 69.6617 33.9673 18.6607
Au 69.6673 9.0591 4.4210
Au 69.6772 14.6680 36.9450
Au 69.6839 37.6928 20.3191
Au 69.6895 12.7846 6.0794
Au 69.6994 18.3935 38.6034
Au 69.7117 16.5100 7.7379
Au 69.7339 20.2355 9.3963
Au 69.7494 0.9362 27.6806
Au 69.7561 23.9610 11.0548
Au 69.7637 76.6071 37.7170
Au 69.7716 4.6617 29.3391
Au 69.7732 79.4101 31.2337
Au 69.7783 27.6864 12.7132
Au 69.7938 8.3871 30.9975
Au 69.7948 69.0118 36.9984
Au 69.8005 31.4119 14.3717
Au 69.8042 71.8148 30.5151
Au 69.8061 6.5037 0.1320
Au 69.8137 74.6178 24.0317
Au 69.8160 12.1126 32.6559
Au 69.8227 35.1374 16.0301
Au 69.8232 77.4208 17.5484
Au 69.8258 61.4166 36.2798
Au 69.8283 10.2292 1.7904
Au 69.8353 64.2196 29.7964
Au 69.8382 15.8381 34.3144
Au 69.8448 67.0225 23.3131
Au 69.8449 38.8629 17.6886
Au 69.8505 13.9546 3.4488
Au 69.8542 69.8255 16.8298
Au 69.8568 53.8213 35.5611
Au 69.8604 19.5636 35.9728
Au 69.8637 72.6285 10.3465
Au 69.8663 56.6243 29.0778
Au 69.8727 17.6801 5.1073
Au 69.8732 75.4315 3.8632
Au 69.8758 59.4273 22.5945
Au 69.8826 23.2890 37.6313
Au 69.8853 62.2303 16.1112
Au 69.8879 46.2260 34.8425
Au 69.8947 65.0333 9.6279
Au 69.8949 21.4056 6.7657
Au 69.8973 49.0290 28.3592
Au 69.9042 67.8363 3.1445
Au 69.9048 27.0145 39.2897
Au 69.9068 51.8320 21.8759
Au 69.9104 2.1063 25.0500
Au 69.9163 54.6350 15.3926
Au 69.9171 25.1311 8.4242
Au 69.9189 38.6308 34.1239
Au 69.9258 57.4380 8.9092
Au 69.9284 41.4338 27.6406
Au 69.9326 5.8318 26.7085
Au 69.9352 60.2410 2.4259
Au 69.9378 44.2368 21.1572
Au 69.9393 28.8565 10.0826
Au 69.9473 47.0398 14.6739
Au 69.9548 9.5572 28.3669
Au 69.9568 49.8428 8.1906
Au 69.9615 32.5820 11.7411
Au 69.9663 52.6458 1.7073
Au 69.9770 13.2827 30.0254
Au 69.9837 36.3075 13.3995
Au 69.9992 17.0082 31.6838
Au 70.0059 40.0330 15.0580
Au 70.0115 15.1247 0.8182
Au 70.0214 20.7336 33.3422
Au 70.0337 18.8502 2.4767
Au 70.0436 24.4591 35.0007
Au 70.0559 22.5757 4.1351
Au 70.0658 28.1846 36.6591
Au 70.0714 3.2764 22.4194
Au 70.0781 26.3011 5.7936
Au 70.0880 31.9101 38.3176
Au 70.0936 7.0018 24.0779
Au 70.1003 30.0266 7.4520
Au 70.1080 73.9790 36.5813
Au 70.1158 10.7273 25.7363
Au 70.1175 76.7820 30.0980
Au 70.1225 33.7521 9.1105
Au 70.1270 79.5850 23.6147
Au 70.1380 14.4528 27.3948
Au 70.1390 66.3838 35.8627
Au 70.1447 37.4776 10.7689
Au 70.1485 69.1868 29.3794
Au 70.1580 71.9897 22.8960
Au 70.1602 18.1783 29.0532
Au 70.1669 41.2030 12.4274
Au 70.1675 74.7927 16.4127
Au 70.1701 58.7885 35.1440
Au 70.1769 77.5957 9.9294
Au 70.1795 61.5915 28.6607
Au 70.1824 21.9037 30.7117
Au 70.1890 64.3945 22.1774
Au 70.1985 67.1975 15.6941
Au 70.2011 51.1932 34.4254
Au 70.2046 25.6292 32.3701
Au 70.2080 70.0005 9.2108
Au 70.2102 0.7210 18.1304
Au 70.2106 53.9962 27.9421
Au 70.2169 23.7458 1.5045
Au 70.2174 72.8035 2.7275
Au 70.2200 56.7992 21.4588
Au 70.2268 29.3547 34.0285
Au 70.2295 59.6022 14.9755
Au 70.2321 43.5980 33.7068
Au 70.2324 4.4464 19.7888
Au 70.2390 62.4052 8.4922
Au 70.2391 27.4712 3.1630
Au 70.2416 46.4010 27.2235
Au 70.2485 65.2082 2.0088
Au 70.2490 33.0801 35.6870
Au 70.2511 49.2040 20.7402
Au 70.2546 8.1719 21.4473
Au 70.2605 52.0070 14.2568
Au 70.2613 31.1967 4.8214
Au 70.2631 36.0027 32.9882
Au 70.2700 54.8100 7.7735
Au 70.2726 38.8057 26.5048
Au 70.2768 11.8974 23.1057
Au 70.2795 57.6130 1.2902
Au 70.2821 41.6087 20.0215
Au 70.2835 34.9222 6.4799
Au 70.2916 44.4117 13.5382
Au 70.2990 15.6229 24.7642
Au 70.3010 47.2147 7.0549
Au 70.3057 38.6476 8.1383
Au 70.3105 50.0177 0.5716
Au 70.3212 19.3483 26.4226
Au 70.3279 42.3731 9.7968
Au 70.3434 23.0738 28.0811
Au 70.3656 26.7993 29.7395
Au 70.3712 1.8911 15.4998
Au 70.3878 30.5248 31.3980
Au 70.3934 5.6165 17.1582
Au 70.4001 28.6413 0.5324
Au 70.4156 9.3420 18.8167
Au 70.4212 78.9462 36.1642
Au 70.4223 32.3668 2.1908
Au 70.4378 13.0675 20.4751
Au 70.4445 36.0923 3.8493
Au 70.4523 71.3510 35.4456
Au 70.4600 16.7930 22.1336
Au 70.4617 74.1539 28.9623
Au 70.4667 39.8177 5.5077
Au 70.4712 76.9569 22.4790
Au 70.4807 79.7599 15.9956
Au 70.4822 20.5184 23.7920
Au 70.4833 63.7557 34.7270
Au 70.4889 43.5432 7.1662
Au 70.4928 66.5587 28.2436
Au 70.5022 69.3617 21.7603
Au 70.5044 24.2439 25.4505
Au 70.5117 72.1647 15.2770
Au 70.5143 56.1604 34.0083
Au 70.5212 74.9677 8.7937
Au 70.5238 58.9634 27.5250
Au 70.5266 27.9694 27.1089
Au 70.5307 77.7707 2.3104
Au 70.5322 3.0611 12.8692
Au 70.5333 61.7664 21.0417
Au 70.5359 45.7622 39.7730
Au 70.5427 64.5694 14.5584
Au 70.5453 48.5652 33.2897
Au 70.5488 31.6948 28.7674
Au 70.5522 67.3724 8.0751
Au 70.5544 6.7866 14.5276
Au 70.5548 51.3682 26.8064
Au 70.5617 70.1754 1.5918
Au 70.5643 54.1712 20.3231
Au 70.5669 38.1669 39.0544
Au 70.5710 35.4203 30.4258
Au 70.5738 56.9742 13.8398
Au 70.5764 40.9699 32.5711
Au 70.5766 10.5121 16.1861
Au 70.5833 59.7772 7.3564
Au 70.5859 43.7729 26.0878
Au 70.5927 62.5802 0.8731
Au 70.5953 46.5759 19.6044
Au 70.5988 14.2376 17.8445
Au 70.6048 49.3789 13.1211
Au 70.6055 37.2623 1.2187
Au 70.6143 52.1819 6.6378
Au 70.6210 17.9630 19.5030
Au 70.6238 54.9849 0.1545
Au 70.6277 40.9878 2.8771
Au 70.6432 21.6885 21.1614
Au 70.6587 2.3892 39.4457
Au 70.6654 25.4140 22.8199
Au 70.6710 0.5058 8.5802
Au 70.6876 29.1395 24.4783
Au 70.6932 4.2312 10.2386
Au 70.7098 32.8649 26.1368
Au 70.7154 7.9567 11.8971
Au 70.7376 11.6822 13.5555
Au 70.7598 15.4077 15.2139
Au 70.7655 76.3182 35.0285
Au 70.7750 79.1211 28.5452
Au 70.7820 19.1331 16.8724
Au 70.7887 42.1579 0.2466
Au 70.7965 68.7229 34.3099
Au 70.8042 22.8586 18.5308
Au 70.8060 71.5259 27.8266
Au 70.8109 45.8834 1.9050
Au 70.8155 74.3289 21.3432
Au 70.8197 3.5593 36.8151
Au 70.8250 77.1319 14.8599
Au 70.8264 26.5841 20.1893
Au 70.8276 61.1276 33.5912
Au 70.8321 1.6758 5.9496
Au 70.8344 79.9349 8.3766
Au 70.8370 63.9306 27.1079
Au 70.8419 7.2848 38.4736
Au 70.8465 66.7336 20.6246
Au 70.8486 30.3095 21.8477
Au 70.8491 50.7294 39.3559
Au 70.8542 5.4013 7.6080
Au 70.8560 69.5366 14.1413
Au 70.8586 53.5324 32.8726
Au 70.8655 72.3396 7.6580
Au 70.8681 56.3354 26.3893
Au 70.8708 34.0350 23.5062
Au 70.8749 75.1426 1.1747
Au 70.8764 9.1268 9.2665
Au 70.8775 59.1384 19.9060
Au 70.8801 43.1341 38.6373
Au 70.8870 61.9414 13.4227
Au 70.8896 45.9371 32.1540
Au 70.8965 64.7444 6.9394
Au 70.8986 12.8523 10.9249
Au 70.8991 48.7401 25.6707
Au 70.9060 67.5474 0.4560
Au 70.9086 51.5431 19.1874
Au 70.9112 35.5389 37.9187
Au 70.9180 54.3461 12.7040
Au 70.9206 38.3419 31.4354
Au 70.9208 16.5777 12.5834
Au 70.9275 57.1491 6.2207
Au 70.9301 41.1449 24.9521
Au 70.9396 43.9479 18.4687
Au 70.9430 20.3032 14.2418
Au 70.9491 46.7509 11.9854
Au 70.9585 1.0039 32.5261
Au 70.9585 49.5539 5.5021
Au 70.9652 24.0287 15.9002
Au 70.9807 4.7294 34.1845
Au 70.9874 27.7542 17.5587
Au 70.9931 2.8459 3.3190
Au 71.0029 8.4549 35.8430
Au 71.0096 31.4796 19.2171
Au 71.0152 6.5714 4.9774
Au 71.0251 12.1803 37.5014
Au 71.0318 35.2051 20.8756
Au 71.0374 10.2969 6.6359
Au 71.0473 15.9058 39.1599
Au 71.0596 14.0224 8.2943
Au 71.0818 17.7478 9.9528
Au 71.1040 21.4733 11.6112
Au 71.1098 73.6901 33.8928
Au 71.1192 76.4931 27.4095
Au 71.1195 2.1740 29.8955
Au 71.1262 25.1988 13.2697
Au 71.1287 79.2961 20.9262
Au 71.1313 63.2918 39.6575
Au 71.1408 66.0948 33.1742
Au 71.1417 5.8995 31.5539
Au 71.1484 28.9242 14.9281
Au 71.1503 68.8978 26.6908
Au 71.1541 4.0160 0.6884
Au 71.1597 71.7008 20.2075
Au 71.1623 55.6966 38.9389
Au 71.1639 9.6249 33.2124
Au 71.1692 74.5038 13.7242
Au 71.1706 32.6497 16.5865
Au 71.1718 58.4996 32.4555
Au 71.1763 7.7415 2.3468
Au 71.1787 77.3068 7.2409
Au 71.1813 61.3026 25.9722
Au 71.1861 13.3504 34.8708
Au 71.1908 64.1056 19.4889
Au 71.1928 36.3752 18.2450
Au 71.1934 48.1013 38.2202
Au 71.1984 11.4670 4.0053
Au 71.2002 66.9086 13.0056
Au 71.2028 50.9043 31.7369
Au 71.2083 17.0759 36.5293
Au 71.2097 69.7116 6.5223
Au 71.2123 53.7073 25.2536
Au 71.2192 72.5146 0.0390
Au 71.2206 15.1924 5.6637
Au 71.2218 56.5103 18.7703
Au 71.2244 40.5061 37.5016
Au 71.2305 20.8014 38.1877
Au 71.2313 59.3133 12.2870
Au 71.2339 43.3091 31.0183
Au 71.2407 62.1163 5.8036
Au 71.2428 18.9179 7.3222
Au 71.2433 46.1121 24.5350
Au 71.2527 24.5268 39.8462
Au 71.2528 48.9151 18.0517
Au 71.2623 51.7181 11.5683
Au 71.2650 22.6434 8.9806
Au 71.2718 54.5210 5.0850
Au 71.2744 38.5168 23.8163
Au 71.2805 3.3441 27.2649
Au 71.2838 41.3198 17.3330
Au 71.2872 26.3689 10.6391
Au 71.2933 44.1228 10.8497
Au 71.3027 7.0695 28.9233
Au 71.3028 46.9258 4.3664
Au 71.3094 30.0943 12.2975
Au 71.3249 10.7950 30.5818
Au 71.3316 33.8198 13.9559
Au 71.3471 14.5205 32.2402
Au 71.3538 37.5453 15.6144
Au 71.3594 12.6370 1.3747
Au 71.3693 18.2460 33.8987
Au 71.3816 16.3625 3.0331
Au 71.3915 21.9714 35.5571
Au 71.4038 20.0880 4.6916
Au 71.4135 75.8543 39.9590
Au 71.4137 25.6969 37.2156
Au 71.4193 0.7887 22.9759
Au 71.4230 78.6573 33.4757
Au 71.4260 23.8135 6.3500
Au 71.4359 29.4224 38.8740
Au 71.4415 4.5142 24.6343
Au 71.4445 68.2590 39.2404
Au 71.4482 27.5389 8.0085
Au 71.4540 71.0620 32.7571
Au 71.4635 73.8650 26.2738
Au 71.4637 8.2396 26.2928
Au 71.4704 31.2644 9.6669
Au 71.4730 76.6680 19.7904
Au 71.4756 60.6638 38.5218
Au 71.4824 79.4710 13.3071
Au 71.4850 63.4668 32.0385
Au 71.4859 11.9651 27.9512
Au 71.4926 34.9899 11.3254
Au 71.4945 66.2698 25.5551
Au 71.5040 69.0728 19.0718
Au 71.5066 53.0685 37.8031
Au 71.5081 15.6906 29.6096
Au 71.5135 71.8758 12.5885
Au 71.5148 38.7154 12.9838
Au 71.5161 55.8715 31.3198
Au 71.5229 74.6788 6.1052
Au 71.5255 58.6745 24.8365
Au 71.5303 19.4161 31.2681
Au 71.5350 61.4775 18.3532
Au 71.5376 45.4733 37.0845
Au 71.5426 17.5326 0.4025
Au 71.5445 64.2805 11.8699
Au 71.5471 48.2763 30.6012
Au 71.5525 23.1415 32.9265
Au 71.5540 67.0835 5.3866
Au 71.5566 51.0793 24.1179
Au 71.5648 21.2581 2.0610
Au 71.5661 53.8823 17.6346
Au 71.5687 37.8780 36.3659
Au 71.5747 26.8670 34.5850
Au 71.5755 56.6853 11.1513
Au 71.5781 40.6810 29.8826
Au 71.5803 1.9588 20.3453
Au 71.5850 59.4882 4.6679
Au 71.5870 24.9836 3.7194
Au 71.5876 43.4840 23.3993
Au 71.5969 30.5925 36.2434
Au 71.5971 46.2870 16.9159
Au 71.6025 5.6842 22.0037
Au 71.6066 49.0900 10.4326
Au 71.6092 28.7090 5.3779
Au 71.6160 51.8930 3.9493
Au 71.6247 9.4097 23.6622
Au 71.6314 32.4345 7.0363
Au 71.6469 13.1352 25.3206
Au 71.6536 36.1600 8.6948
Au 71.6691 16.8607 26.9790
Au 71.6758 39.8854 10.3532
Au 71.6913 20.5861 28.6375
Au 71.7135 24.3116 30.2959
Au 71.7357 28.0371 31.9544
Au 71.7413 3.1289 17.7147
Au 71.7480 26.1536 1.0888
Au 71.7578 73.2262 38.8233
Au 71.7579 31.7626 33.6128
Au 71.7635 6.8543 19.3731
Au 71.7672 76.0292 32.3400
Au 71.7702 29.8791 2.7473
Au 71.7767 78.8322 25.8567
Au 71.7857 10.5798 21.0316
Au 71.7888 65.6310 38.1047
Au 71.7924 33.6046 4.4057
Au 71.7983 68.4340 31.6214
Au 71.8078 71.2370 25.1381
Au 71.8079 14.3053 22.6900
Au 71.8146 37.3301 6.0642
Au 71.8172 74.0400 18.6547
Au 71.8198 58.0357 37.3861
Au 71.8267 76.8430 12.1714
Au 71.8293 60.8387 30.9027
Au 71.8301 18.0308 24.3485
Au 71.8362 79.6460 5.6881
Au 71.8368 41.0555 7.7226
Au 71.8388 63.6417 24.4194
Au 71.8483 66.4447 17.9361
Au 71.8509 50.4405 36.6674
Au 71.8523 21.7562 26.0069
Au 71.8577 69.2477 11.4528
Au 71.8603 53.2435 30.1841
Au 71.8672 72.0507 4.9695
Au 71.8698 56.0465 23.7008
Au 71.8745 25.4817 27.6653
Au 71.8793 58.8495 17.2175
Au 71.8802 0.5735 13.4256
Au 71.8819 42.8452 35.9488
Au 71.8888 61.6525 10.7342
Au 71.8914 45.6482 29.4655
Au 71.8967 29.2072 29.3238
Au 71.8982 64.4554 4.2509
Au 71.9008 48.4512 22.9822
Au 71.9024 4.2989 15.0841
Au 71.9103 51.2542 16.4989
Au 71.9129 35.2500 35.2302
Au 71.9189 32.9326 30.9822
Au 71.9198 54.0572 10.0155
Au 71.9224 38.0530 28.7469
Au 71.9245 8.0244 16.7425
Au 71.9293 56.8602 3.5322
Au 71.9312 31.0492 0.1167
Au 71.9319 40.8560 22.2635
Au 71.9413 43.6589 15.7802
Au 71.9467 11.7499 18.4010
Au 71.9508 46.4619 9.2969
Au 71.9534 34.7747 1.7751
Au 71.9603 49.2649 2.8136
Au 71.9689 15.4754 20.0594
Au 71.9756 38.5001 3.4336
Au 71.9911 19.2008 21.7179
Au 71.9978 42.2256 5.0920
Au 72.0133 22.9263 23.3763
Au 72.0355 26.6518 25.0348
Au 72.0412 1.7436 10.7950
Au 72.0577 30.3773 26.6932
Au 72.0634 5.4690 12.4535
Au 72.0710 78.1934 38.4062
Au 72.0799 34.1027 28.3516
Au 72.0855 9.1945 14.1119
Au 72.1020 70.5982 37.6876
Au 72.1077 12.9200 15.7704
Au 72.1115 73.4012 31.2043
Au 72.1210 76.2042 24.7210
Au 72.1299 16.6455 17.4288
Au 72.1305 79.0072 18.2377
Au 72.1331 63.0029 36.9690
Au 72.1366 39.6702 0.8030
Au 72.1425 65.8059 30.4857
Au 72.1520 68.6089 24.0023
Au 72.1521 20.3709 19.0873
Au 72.1588 43.3957 2.4614
Au 72.1615 71.4119 17.5190
Au 72.1641 55.4077 36.2503
Au 72.1676 1.0716 37.3716
Au 72.1710 74.2149 11.0357
Au 72.1736 58.2107 29.7670
Au 72.1743 24.0964 20.7457
Au 72.1804 77.0179 4.5524
Au 72.1830 61.0137 23.2837
Au 72.1898 4.7971 39.0300
Au 72.1925 63.8167 16.8004
Au 72.1951 47.8124 35.5317
Au 72.1965 27.8219 22.4042
Au 72.2020 66.6196 10.3171
Au 72.2022 2.9136 8.1644
Au 72.2046 50.6154 29.0484
Au 72.2115 69.4226 3.8338
Au 72.2141 53.4184 22.5651
Au 72.2187 31.5473 24.0626
Au 72.2235 56.2214 16.0818
Au 72.2244 6.6391 9.8229
Au 72.2261 40.2172 34.8131
Au 72.2330 59.0244 9.5985
Au 72.2356 43.0202 28.3298
Au 72.2409 35.2728 25.7211
Au 72.2425 61.8274 3.1151
Au 72.2451 45.8231 21.8465
Au 72.2466 10.3646 11.4813
Au 72.2546 48.6261 15.3631
Au 72.2640 51.4291 8.8798
Au 72.2687 14.0901 13.1398
Au 72.2735 54.2321 2.3965
Au 72.2856 41.0309 14.6445
Au 72.2909 17.8155 14.7982
Au 72.2951 43.8339 8.1612
Au 72.3131 21.5410 16.4567
Au 72.3286 2.2417 34.7410
Au 72.3353 25.2665 18.1151
Au 72.3410 0.3583 3.8754
Au 72.3508 5.9672 36.3994
Au 72.3575 28.9920 19.7736
Au 72.3632 4.0837 5.5339
Au 72.3730 9.6926 38.0579
Au 72.3797 32.7174 21.4320
Au 72.3854 7.8092 7.1923
Au 72.3952 13.4181 39.7163
Au 72.4019 36.4429 23.0905
Au 72.4076 11.5347 8.8507
Au 72.4153 75.5654 37.2705
Au 72.4247 78.3684 30.7872
Au 72.4297 15.2601 10.5092
Au 72.4463 67.9701 36.5519
Au 72.4519 18.9856 12.1676
Au 72.4558 70.7731 30.0686
Au 72.4652 73.5761 23.5853
Au 72.4741 22.7111 13.8261
Au 72.4747 76.3791 17.1019
Au 72.4773 60.3749 35.8333
Au 72.4842 79.1821 10.6186
Au 72.4868 63.1779 29.3499
Au 72.4896 3.4118 32.1104
Au 72.4963 65.9809 22.8666
Au 72.4963 26.4366 15.4845
Au 72.5020 1.5283 1.2448
Au 72.5057 68.7839 16.3833
Au 72.5083 52.7796 35.1146
Au 72.5118 7.1373 33.7688
Au 72.5152 71.5868 9.9000
Au 72.5178 55.5826 28.6313
Au 72.5185 30.1620 17.1430
Au 72.5242 5.2538 2.9033
Au 72.5247 74.3898 3.4167
Au 72.5273 58.3856 22.1480
Au 72.5340 10.8627 35.4273
Au 72.5368 61.1886 15.6647
Au 72.5394 45.1844 34.3960
Au 72.5407 33.8875 18.8014
Au 72.5463 63.9916 9.1814
Au 72.5464 8.9793 4.5617
Au 72.5489 47.9874 27.9127
Au 72.5557 66.7946 2.6981
Au 72.5562 14.5882 37.0857
Au 72.5583 50.7903 21.4294
Au 72.5629 37.6130 20.4599
Au 72.5678 53.5933 14.9461
Au 72.5686 12.7048 6.2202
Au 72.5704 37.5891 33.6774
Au 72.5773 56.3963 8.4627
Au 72.5784 18.3137 38.7442
Au 72.5799 40.3921 27.1941
Au 72.5868 59.1993 1.9794
Au 72.5894 43.1951 20.7108
Au 72.5907 16.4302 7.8786
Au 72.5988 45.9981 14.2274
Au 72.6083 48.8011 7.7441
Au 72.6129 20.1557 9.5370
Au 72.6178 51.6041 1.2608
Au 72.6285 0.8564 27.8213
Au 72.6351 23.8812 11.1955
Au 72.6506 4.5819 29.4798
Au 72.6573 27.6067 12.8539
Au 72.6728 8.3073 31.1382
Au 72.6795 31.3321 14.5124
Au 72.6852 6.4239 0.2727
Au 72.6950 12.0328 32.7967
Au 72.7017 35.0576 16.1708
Au 72.7074 10.1494 1.9311
Au 72.7172 15.7583 34.4551
Au 72.7239 38.7831 17.8293
Au 72.7296 13.8748 3.5896
Au 72.7394 19.4838 36.1136
Au 72.7518 17.6003 5.2480
Au 72.7595 72.9373 36.1348
Au 72.7616 23.2092 37.7720
Au 72.7690 75.7403 29.6515
Au 72.7739 21.3258 6.9065
Au 72.7785 78.5433 23.1682
Au 72.7838 26.9347 39.4304
Au 72.7895 2.0265 25.1907
Au 72.7906 65.3421 35.4162
Au 72.7961 25.0513 8.5649
Au 72.8000 68.1451 28.9329
Au 72.8095 70.9481 22.4495
Au 72.8116 5.7520 26.8492
Au 72.8183 28.7767 10.2233
Au 72.8190 73.7510 15.9662
Au 72.8216 57.7468 34.6976
Au 72.8285 76.5540 9.4829
Au 72.8311 60.5498 28.2142
Au 72.8338 9.4774 28.5076
Au 72.8379 79.3570 2.9996
Au 72.8405 32.5022 11.8818
Au 72.8405 63.3528 21.7309
Au 72.8500 66.1558 15.2476
Au 72.8526 50.1516 33.9789
Au 72.8560 13.2029 30.1661
Au 72.8595 68.9588 8.7643
Au 72.8621 52.9545 27.4956
Au 72.8627 36.2277 13.5402
Au 72.8690 71.7618 2.2810
Au 72.8716 55.7575 21.0123
Au 72.8742 39.7533 39.7436
Au 72.8782 16.9284 31.8245
Au 72.8810 58.5605 14.5290
Au 72.8836 42.5563 33.2603
Au 72.8905 61.3635 8.0457
Au 72.8906 15.0449 0.9590
Au 72.8931 45.3593 26.7770
Au 72.9000 64.1665 1.5623
Au 72.9004 20.6539 33.4830
Au 72.9026 48.1623 20.2937
Au 72.9052 32.1580 39.0250
Au 72.9121 50.9653 13.8104
Au 72.9128 18.7704 2.6174
Au 72.9147 34.9610 32.5417
Au 72.9215 53.7683 7.3270
Au 72.9226 24.3793 35.1414
Au 72.9241 37.7640 26.0584
Au 72.9310 56.5713 0.8437
Au 72.9336 40.5670 19.5750
Au 72.9349 22.4959 4.2759
Au 72.9431 43.3700 13.0917
Au 72.9448 28.1048 36.7999
Au 72.9505 3.1966 22.5601
Au 72.9526 46.1730 6.6084
Au 72.9571 26.2214 5.9343
Au 72.9620 48.9760 0.1251
Au 72.9727 6.9220 24.2186
Au 72.9793 29.9468 7.5927
Au 72.9948 10.6475 25.8770
Au 73.0015 33.6723 9.2512
Au 73.0170 14.3730 27.5355
Au 73.0237 37.3978 10.9096
Au 73.0392 18.0985 29.1939
Au 73.0459 41.1232 12.5681
Au 73.0614 21.8239 30.8524
Au 73.0728 77.9045 35.7177
Au 73.0836 25.5494 32.5108
Au 73.0893 0.6412 18.2711
Au 73.0960 23.6660 1.6453
Au 73.1038 70.3093 34.9991
Au 73.1058 29.2749 34.1693
Au 73.1115 4.3667 19.9296
Au 73.1133 73.1123 28.5158
Au 73.1181 27.3914 3.3037
Au 73.1227 75.9153 22.0325
Au 73.1322 78.7182 15.5491
Au 73.1337 8.0921 21.5880
Au 73.1348 62.7140 34.2805
Au 73.1403 31.1169 4.9622
Au 73.1443 65.5170 27.7972
Au 73.1538 68.3200 21.3138
Au 73.1558 11.8176 23.2464
Au 73.1625 34.8424 6.6206
Au 73.1632 71.1230 14.8305
Au 73.1658 55.1188 33.5618
Au 73.1727 73.9260 8.3472
Au 73.1753 57.9217 27.0785
Au 73.1780 15.5431 24.9049
Au 73.1822 76.7290 1.8639
Au 73.1847 38.5679 8.2790
Au 73.1848 60.7247 20.5952
Au 73.1874 44.7205 39.3265
Au 73.1943 63.5277 14.1119
Au 73.1969 47.5235 32.8432
Au 73.2002 19.2686 26.5633
Au 73.2037 66.3307 7.6286
Au 73.2063 50.3265 26.3599
Au 73.2069 42.2933 9.9375
Au 73.2132 69.1337 1.1453
Au 73.2158 53.1295 19.8766
Au 73.2184 37.1252 38.6079
Au 73.2224 22.9940 28.2218
Au 73.2253 55.9325 13.3933
Au 73.2279 39.9282 32.1246
Au 73.2348 58.7355 6.9100
Au 73.2374 42.7312 25.6413
Au 73.2442 61.5385 0.4266
Au 73.2446 26.7195 29.8802
Au 73.2468 45.5342 19.1580
Au 73.2503 1.8113 15.6405
Au 73.2563 48.3372 12.6746
Au 73.2658 51.1402 6.1913
Au 73.2668 30.4450 31.5387
Au 73.2725 5.5367 17.2990
Au 73.2791 28.5615 0.6731
Au 73.2947 9.2622 18.9574
Au 73.3013 32.2870 2.3316
Au 73.3169 12.9877 20.6158
Au 73.3235 36.0125 3.9900
Au 73.3390 16.7132 22.2743
Au 73.3457 39.7379 5.6485
Au 73.3612 20.4386 23.9327
Au 73.3834 24.1641 25.5912
Au 73.4056 27.8896 27.2496
Au 73.4113 2.9814 13.0099
Au 73.4170 75.2765 34.5820
Au 73.4265 78.0795 28.0987
Au 73.4278 31.6151 28.9081
Au 73.4335 6.7068 14.6684
Au 73.4480 67.6812 33.8634
Au 73.4557 10.4323 16.3268
Au 73.4575 70.4842 27.3801
Au 73.4670 73.2872 20.8968
Au 73.4696 57.2830 39.6281
Au 73.4765 76.0902 14.4134
Au 73.4779 14.1578 17.9853
Au 73.4791 60.0859 33.1448
Au 73.4845 37.1826 1.3594
Au 73.4859 78.8932 7.9301
Au 73.4885 62.8889 26.6614
Au 73.4980 65.6919 20.1781
Au 73.5000 17.8832 19.6437
Au 73.5006 49.6877 38.9094
Au 73.5067 40.9080 3.0179
Au 73.5075 68.4949 13.6948
Au 73.5101 52.4907 32.4261
Au 73.5170 71.2979 7.2115
Au 73.5196 55.2937 25.9428
Au 73.5222 21.6087 21.3021
Au 73.5265 74.1009 0.7282
Au 73.5291 58.0967 19.4595
Au 73.5317 42.0924 38.1908
Au 73.5378 2.3094 39.5864
Au 73.5385 60.8997 12.9762
Au 73.5411 44.8954 31.7075
Au 73.5444 25.3342 22.9606
Au 73.5480 63.7027 6.4929
Au 73.5501 0.4260 8.7209
Au 73.5506 47.6984 25.2242
Au 73.5575 66.5057 0.0096
Au 73.5601 50.5014 18.7409
Au 73.5627 34.4972 37.4722
Au 73.5666 29.0597 24.6190
Au 73.5696 53.3044 12.2576
Au 73.5722 37.3002 30.9889
Au 73.5723 4.1514 10.3793
Au 73.5790 56.1074 5.7742
Au 73.5816 40.1032 24.5056
Au 73.5888 32.7851 26.2775
Au 73.5911 42.9062 18.0222
Au 73.5945 7.8769 12.0378
Au 73.6006 45.7092 11.5389
Au 73.6101 48.5122 5.0556
Au 73.6167 11.6024 13.6962
Au 73.6389 15.3279 15.3547
Au 73.6610 19.0533 17.0131
Au 73.6677 42.0781 0.3873
Au 73.6832 22.7788 18.6716
Au 73.6988 3.4795 36.9558
Au 73.7054 26.5043 20.3300
Au 73.7111 1.5961 6.0903
Au 73.7209 7.2050 38.6143
Au 73.7276 30.2298 21.9884
Au 73.7333 5.3215 7.7487
Au 73.7498 33.9552 23.6469
Au 73.7518 69.8454 39.9296
Au 73.7555 9.0470 9.4072
Au 73.7613 72.6484 33.4463
Au 73.7708 75.4514 26.9630
Au 73.7777 12.7725 11.0656
Au 73.7802 78.2544 20.4797
Au 73.7828 62.2502 39.2110
Au 73.7923 65.0531 32.7277
Au 73.7999 16.4979 12.7241
Au 73.8018 67.8561 26.2444
Au 73.8113 70.6591 19.7610
Au 73.8139 54.6549 38.4924
Au 73.8207 73.4621 13.2777
Au 73.8221 20.2234 14.3825
Au 73.8233 57.4579 32.0090
Au 73.8302 76.2651 6.7944
Au 73.8328 60.2609 25.5257
Au 73.8376 0.9241 32.6668
Au 73.8397 79.0681 0.3111
Au 73.8423 63.0639 19.0424
Au 73.8442 23.9489 16.0410
Au 73.8449 47.0596 37.7737
Au 73.8518 65.8669 12.5591
Au 73.8544 49.8626 31.2904
Au 73.8598 4.6496 34.3252
Au 73.8612 68.6699 6.0758
Au 73.8638 52.6656 24.8071
Au 73.8664 27.6744 17.6994
Au 73.8721 2.7661 3.4597
Au 73.8733 55.4686 18.3238
Au 73.8759 39.4644 37.0551
Au 73.8820 8.3751 35.9837
Au 73.8828 58.2716 11.8405
Au 73.8854 42.2674 30.5718
Au 73.8886 31.3998 19.3579
Au 73.8923 61.0746 5.3572
Au 73.8943 6.4916 5.1181
Au 73.8949 45.0704 24.0885
Au 73.9041 12.1005 37.6421
Au 73.9043 47.8734 17.6052
Au 73.9108 35.1253 21.0163
Au 73.9138 50.6764 11.1218
Au 73.9165 10.2171 6.7766
Au 73.9233 53.4794 4.6385
Au 73.9259 37.4751 23.3699
Au 73.9263 15.8260 39.3006
Au 73.9354 40.2781 16.8865
Au 73.9387 13.9426 8.4350
Au 73.9543 45.8841 3.9199
Au 73.9609 17.6680 10.0935
Au 73.9831 21.3935 11.7519
Au 73.9986 2.0942 30.0362
Au 74.0052 25.1190 13.4104
Au 74.0208 5.8197 31.6947
Au 74.0274 28.8445 15.0688
Au 74.0331 3.9362 0.8291
Au 74.0430 9.5451 33.3531
Au 74.0496 32.5699 16.7273
Au 74.0553 7.6617 2.4875
Au 74.0650 74.8126 39.5125
Au 74.0651 13.2706 35.0115
Au 74.0718 36.2954 18.3857
Au 74.0745 77.6156 33.0292
Au 74.0775 11.3872 4.1460
Au 74.0873 16.9961 36.6700
Au 74.0961 67.2174 38.7939
Au 74.0997 15.1126 5.8044
Au 74.1055 70.0203 32.3106
Au 74.1095 20.7216 38.3284
Au 74.1150 72.8233 25.8273
Au 74.1219 18.8381 7.4629
Au 74.1245 75.6263 19.3440
Au 74.1271 59.6221 38.0753
Au 74.1317 24.4470 39.9869
Au 74.1340 78.4293 12.8606
Au 74.1366 62.4251 31.5920
Au 74.1441 22.5636 9.1213
Au 74.1460 65.2281 25.1086
Au 74.1555 68.0311 18.6253
Au 74.1581 52.0268 37.3567
Au 74.1596 3.2643 27.4056
Au 74.1650 70.8341 12.1420
Au 74.1663 26.2891 10.7798
Au 74.1676 54.8298 30.8733
Au 74.1745 73.6371 5.6587
Au 74.1771 57.6328 24.3900
Au 74.1818 6.9898 29.0641
Au 74.1865 60.4358 17.9067
Au 74.1884 30.0145 12.4382
Au 74.1891 44.4316 36.6380
Au 74.1960 63.2388 11.4234
Au 74.1986 47.2346 30.1547
Au 74.2040 10.7152 30.7225
Au 74.2055 66.0418 4.9401
Au 74.2081 50.0376 23.6714
Au 74.2106 33.7400 14.0967
Au 74.2176 52.8406 17.1881
Au 74.2202 36.8363 35.9194
Au 74.2261 14.4407 32.3810
Au 74.2270 55.6436 10.7048
Au 74.2296 39.6393 29.4361
Au 74.2328 37.4655 15.7551
Au 74.2365 58.4466 4.2214
Au 74.2385 12.5573 1.5154
Au 74.2391 42.4423 22.9528
Au 74.2483 18.1662 34.0394
Au 74.2486 45.2453 16.4695
Au 74.2581 48.0483 9.9861
Au 74.2607 16.2827 3.1738
Au 74.2676 50.8513 3.5028
Au 74.2705 21.8916 35.6978
Au 74.2829 20.0082 4.8323
Au 74.2927 25.6171 37.3563
Au 74.2984 0.7089 23.1166
Au 74.3051 23.7337 6.4907
Au 74.3149 29.3426 39.0147
Au 74.3206 4.4344 24.7750
Au 74.3273 27.4591 8.1492
Au 74.3428 8.1598 26.4335
Au 74.3494 31.1846 9.8076
Au 74.3650 11.8853 28.0919
Au 74.3716 34.9101 11.4661
Au 74.3783 79.7798 39.0954
Au 74.3872 15.6108 29.7504
Au 74.3938 38.6356 13.1245
Au 74.4093 72.1845 38.3768
Au 74.4093 19.3363 31.4088
Au 74.4188 74.9875 31.8935
Au 74.4217 17.4528 0.5433
Au 74.4282 77.7905 25.4102
Au 74.4315 23.0617 33.0672
Au 74.4403 64.5893 37.6582
Au 74.4439 21.1783 2.2017
Au 74.4498 67.3923 31.1749
Au 74.4537 26.7872 34.7257
Au 74.4593 70.1953 24.6916
Au 74.4594 1.8790 20.4860
Au 74.4661 24.9038 3.8601
Au 74.4687 72.9983 18.2082
Au 74.4713 56.9940 36.9396
Au 74.4759 30.5127 36.3841
Au 74.4782 75.8013 11.7249
Au 74.4808 59.7970 30.4563
Au 74.4816 5.6045 22.1444
Au 74.4877 78.6043 5.2416
Au 74.4883 28.6292 5.5186
Au 74.4903 62.6000 23.9729
Au 74.4998 65.4030 17.4896
Au 74.5024 49.3988 36.2209
Au 74.5038 9.3299 23.8029
Au 74.5093 68.2060 11.0063
Au 74.5104 32.3547 7.1770
Au 74.5119 52.2018 29.7376
Au 74.5187 71.0090 4.5230
Au 74.5213 55.0048 23.2543
Au 74.5260 13.0554 25.4613
Au 74.5308 57.8078 16.7710
Au 74.5326 36.0802 8.8355
Au 74.5334 41.8035 35.5023
Au 74.5403 60.6108 10.2877
Au 74.5429 44.6065 29.0190
Au 74.5482 16.7809 27.1198
Au 74.5498 63.4138 3.8044
Au 74.5524 47.4095 22.5357
Au 74.5548 39.8057 10.4939
Au 74.5618 50.2125 16.0524
Au 74.5644 34.2083 34.7837
Au 74.5703 20.5063 28.7782
Au 74.5713 53.0155 9.5691
Au 74.5739 37.0113 28.3004
Au 74.5808 55.8185 3.0857
Au 74.5834 39.8143 21.8171
Au 74.5925 24.2318 30.4367
Au 74.5929 42.6173 15.3337
Au 74.6023 45.4202 8.8504
Au 74.6118 48.2232 2.3671
Au 74.6147 27.9573 32.0951
Au 74.6204 3.0491 17.8554
Au 74.6271 26.0738 1.2296
Au 74.6369 31.6828 33.7535
Au 74.6426 6.7745 19.5138
Au 74.6493 29.7993 2.8880
Au 74.6648 10.5000 21.1723
Au 74.6715 33.5248 4.5464
Au 74.6870 14.2255 22.8307
Au 74.6936 37.2503 6.2049
Au 74.7092 17.9510 24.4892
Au 74.7158 40.9757 7.8633
Au 74.7225 77.1517 37.9597
Au 74.7313 21.6764 26.1476
Au 74.7320 79.9547 31.4764
Au 74.7535 25.4019 27.8061
Au 74.7536 69.5565 37.2411
Au 74.7592 0.4937 13.5664
Au 74.7630 72.3595 30.7578
Au 74.7725 75.1625 24.2745
Au 74.7757 29.1274 29.4645
Au 74.7814 4.2192 15.2248
Au 74.7820 77.9655 17.7912
Au 74.7846 61.9612 36.5225
Au 74.7941 64.7642 30.0392
Au 74.7979 32.8529 31.1230
Au 74.8035 67.5672 23.5559
Au 74.8036 7.9446 16.8832
Au 74.8103 30.9694 0.2574
Au 74.8130 70.3702 17.0725
Au 74.8156 54.3660 35.8039
Au 74.8225 73.1732 10.5892
Au 74.8251 57.1690 29.3205
Au 74.8258 11.6701 18.5417
Au 74.8320 75.9762 4.1059
Au 74.8325 34.6949 1.9158
Au 74.8346 59.9720 22.8372
Au 74.8440 62.7750 16.3539
Au 74.8466 46.7707 35.0852
Au 74.8480 15.3956 20.2001
Au 74.8535 65.5780 9.8706
Au 74.8546 38.4204 3.5743
Au 74.8561 49.5737 28.6019
Au 74.8630 68.3810 3.3873
Au 74.8656 52.3767 22.1186
Au 74.8702 19.1210 21.8586
Au 74.8751 55.1797 15.6353
Au 74.8768 42.1458 5.2327
Au 74.8777 39.1755 34.3666
Au 74.8845 57.9827 9.1520
Au 74.8871 41.9785 27.8833
Au 74.8924 22.8465 23.5170
Au 74.8940 60.7857 2.6687
Au 74.8966 44.7815 21.4000
Au 74.9061 47.5845 14.9167
Au 74.9145 26.5720 25.1755
Au 74.9156 50.3874 8.4333
Au 74.9202 1.6638 10.9358
Au 74.9250 53.1904 1.9500
Au 74.9367 30.2975 26.8339
Au 74.9424 5.3892 12.5942
Au 74.9466 42.7922 7.7147
Au 74.9561 45.5952 1.2314
Au 74.9589 34.0229 28.4924
Au 74.9646 9.1147 14.2527
Au 74.9868 12.8402 15.9111
Au 75.0090 16.5657 17.5695
Au 75.0157 39.5904 0.9437
Au 75.0312 20.2911 19.2280
Au 75.0378 43.3159 2.6021
Au 75.0467 0.9918 37.5123
Au 75.0534 24.0166 20.8864
Au 75.0668 74.5237 36.8240
Au 75.0689 4.7173 39.1707
Au 75.0755 27.7421 22.5449
Au 75.0763 77.3267 30.3407
Au 75.0812 2.8339 8.3052
Au 75.0977 31.4676 24.2033
Au 75.0978 66.9284 36.1054
Au 75.1034 6.5593 9.9636
Au 75.1073 69.7314 29.6221
Au 75.1168 72.5344 23.1388
Au 75.1199 35.1930 25.8618
Au 75.1256 10.2848 11.6221
Au 75.1262 75.3374 16.6555
Au 75.1288 59.3332 35.3868
Au 75.1357 78.1404 10.1721
Au 75.1383 62.1362 28.9035
Au 75.1478 14.0103 13.2805
Au 75.1478 64.9392 22.4201
Au 75.1573 67.7422 15.9368
Au 75.1599 51.7379 34.6681
Au 75.1667 70.5452 9.4535
Au 75.1693 54.5409 28.1848
Au 75.1700 17.7357 14.9389
Au 75.1762 73.3481 2.9702
Au 75.1788 57.3439 21.7015
Au 75.1883 60.1469 15.2182
Au 75.1909 44.1427 33.9495
Au 75.1922 21.4612 16.5974
Au 75.1978 62.9499 8.7349
Au 75.2004 46.9457 27.4662
Au 75.2073 65.7529 2.2516
Au 75.2077 2.1619 34.8817
Au 75.2099 49.7487 20.9829
Au 75.2125 33.7444 39.7142
Au 75.2144 25.1867 18.2558
Au 75.2193 52.5516 14.4996
Au 75.2200 0.2785 4.0161
Au 75.2219 36.5474 33.2309
Au 75.2288 55.3546 8.0163
Au 75.2299 5.8874 36.5401
Au 75.2314 39.3504 26.7476
Au 75.2366 28.9122 19.9143
Au 75.2383 58.1576 1.5329
Au 75.2409 42.1534 20.2643
Au 75.2422 4.0039 5.6746
Au 75.2504 44.9564 13.7809
Au 75.2521 9.6129 38.1986
Au 75.2587 32.6376 21.5727
Au 75.2598 47.7594 7.2976
Au 75.2644 7.7294 7.3330
Au 75.2693 50.5624 0.8143
Au 75.2743 13.3383 39.8570
Au 75.2866 11.4549 8.9915
Au 75.3088 15.1804 10.6499
Au 75.3310 18.9058 12.3084
Au 75.3532 22.6313 13.9668
Au 75.3687 3.3320 32.2511
Au 75.3754 26.3568 15.6252
Au 75.3800 79.4909 36.4069
Au 75.3810 1.4485 1.3855
Au 75.3909 7.0575 33.9095
Au 75.3976 30.0822 17.2837
Au 75.4032 5.1740 3.0440
Au 75.4110 71.8956 35.6883
Au 75.4131 10.7829 35.5680
Au 75.4197 33.8077 18.9421
Au 75.4205 74.6986 29.2050
Au 75.4254 8.8995 4.7024
Au 75.4300 77.5016 22.7217
Au 75.4353 14.5084 37.2264
Au 75.4419 37.5332 20.6006
Au 75.4421 64.3004 34.9697
Au 75.4476 12.6250 6.3609
Au 75.4516 67.1034 28.4864
Au 75.4575 18.2339 38.8849
Au 75.4610 69.9064 22.0031
Au 75.4698 16.3504 8.0193
Au 75.4705 72.7094 15.5197
Au 75.4731 56.7051 34.2511
Au 75.4800 75.5124 9.0364
Au 75.4826 59.5081 27.7677
Au 75.4895 78.3153 2.5531
Au 75.4920 20.0759 9.6778
Au 75.4921 62.3111 21.2844
Au 75.5015 65.1141 14.8011
Au 75.5041 49.1099 33.5324
Au 75.5075 0.7766 27.9620
Au 75.5110 67.9171 8.3178
Au 75.5136 51.9129 27.0491
Au 75.5142 23.8014 11.3362
Au 75.5205 70.7201 1.8345
Au 75.5231 54.7159 20.5658
Au 75.5257 38.7116 39.2971
Au 75.5297 4.5021 29.6205
Au 75.5326 57.5188 14.0825
Au 75.5352 41.5146 32.8138
Au 75.5364 27.5269 12.9947
Au 75.5420 60.3218 7.5992
Au 75.5446 44.3176 26.3305
Au 75.5515 63.1248 1.1159
Au 75.5519 8.2276 31.2789
Au 75.5541 47.1206 19.8472
Au 75.5586 31.2523 14.6531
Au 75.5636 49.9236 13.3639
Au 75.5642 6.3441 0.4134
Au 75.5731 52.7266 6.8805
Au 75.5741 11.9530 32.9374
Au 75.5807 34.9778 16.3115
Au 75.5825 55.5296 0.3972
Au 75.5851 39.5253 19.1286
Au 75.5864 10.0696 2.0718
Au 75.5946 42.3283 12.6452
Au 75.5963 15.6785 34.5958
Au 75.6041 45.1313 6.1619
Au 75.6086 13.7951 3.7303
Au 75.6185 19.4040 36.2543
Au 75.6308 17.5205 5.3887
Au 75.6406 23.1294 37.9127
Au 75.6530 21.2460 7.0472
Au 75.6628 26.8549 39.5712
Au 75.6685 1.9467 25.3315
Au 75.6752 24.9715 8.7056
Au 75.6907 5.6722 26.9899
Au 75.6974 28.6969 10.3641
Au 75.7129 9.3976 28.6483
Au 75.7196 32.4224 12.0225
Au 75.7243 76.8628 35.2712
Au 75.7338 79.6658 28.7879
Au 75.7351 13.1231 30.3068
Au 75.7418 36.1479 13.6810
Au 75.7553 69.2676 34.5526
Au 75.7573 16.8486 31.9652
Au 75.7648 72.0706 28.0693
Au 75.7696 14.9651 1.0997
Au 75.7743 74.8736 21.5860
Au 75.7795 20.5741 33.6237
Au 75.7837 77.6766 15.1027
Au 75.7863 61.6723 33.8340
Au 75.7918 18.6906 2.7581
Au 75.7958 64.4753 27.3507
Au 75.8017 24.2995 35.2821
Au 75.8053 67.2783 20.8673
Au 75.8079 51.2741 39.5987
Au 75.8140 22.4161 4.4166
Au 75.8148 70.0813 14.3840
Au 75.8174 54.0771 33.1154
Au 75.8238 28.0250 36.9406
Au 75.8242 72.8843 7.9007
Au 75.8268 56.8801 26.6320
Au 75.8295 3.1168 22.7009
Au 75.8337 75.6873 1.4174
Au 75.8362 26.1416 6.0750
Au 75.8363 59.6830 20.1487
Au 75.8389 43.6788 38.8800
Au 75.8458 62.4860 13.6654
Au 75.8484 46.4818 32.3967
Au 75.8517 6.8423 24.3593
Au 75.8553 65.2890 7.1821
Au 75.8579 49.2848 25.9134
Au 75.8584 29.8670 7.7335
Au 75.8647 68.0920 0.6988
Au 75.8673 52.0878 19.4301
Au 75.8699 36.0836 38.1614
Au 75.8739 10.5677 26.0178
Au 75.8768 54.8908 12.9468
Au 75.8794 38.8865 31.6781
Au 75.8806 33.5925 9.3919
Au 75.8863 57.6938 6.4635
Au 75.8889 41.6895 25.1948
Au 75.8961 14.2932 27.6762
Au 75.8984 44.4925 18.7115
Au 75.9028 37.3180 11.0504
Au 75.9078 47.2955 12.2282
Au 75.9173 50.0985 5.7448
Au 75.9183 18.0187 29.3346
Au 75.9405 21.7441 30.9931
Au 75.9528 19.8607 0.1275
Au 75.9627 25.4696 32.6515
Au 75.9683 0.5614 18.4118
Au 75.9750 23.5862 1.7860
Au 75.9848 29.1951 34.3100
Au 75.9905 4.2869 20.0703
Au 75.9972 27.3116 3.4444
Au 76.0127 8.0123 21.7287
Au 76.0194 31.0371 5.1029
Au 76.0349 11.7378 23.3872
Au 76.0416 34.7626 6.7613
Au 76.0571 15.4633 25.0456
Au 76.0638 38.4881 8.4198
Au 76.0685 74.2348 34.1355
Au 76.0780 77.0378 27.6522
Au 76.0793 19.1888 26.7041
Au 76.0875 79.8408 21.1689
Au 76.0901 63.8365 39.9002
Au 76.0996 66.6395 33.4169
Au 76.1015 22.9142 28.3625
Au 76.1090 69.4425 26.9336
Au 76.1185 72.2455 20.4503
Au 76.1211 56.2413 39.1816
Au 76.1237 26.6397 30.0209
Au 76.1280 75.0485 13.9669
Au 76.1293 1.7315 15.7812
Au 76.1306 59.0443 32.6983
Au 76.1375 77.8515 7.4836
Au 76.1401 61.8473 26.2150
Au 76.1458 30.3652 31.6794
Au 76.1495 64.6502 19.7316
Au 76.1515 5.4570 17.4397
Au 76.1521 48.6460 38.4630
Au 76.1582 28.4817 0.8138
Au 76.1590 67.4532 13.2483
Au 76.1616 51.4490 31.9796
Au 76.1685 70.2562 6.7650
Au 76.1711 54.2520 25.4963
Au 76.1737 9.1824 19.0981
Au 76.1780 73.0592 0.2817
Au 76.1804 32.2072 2.4723
Au 76.1806 57.0550 19.0130
Au 76.1832 41.0508 37.7443
Au 76.1901 59.8580 12.5297
Au 76.1927 43.8537 31.2610
Au 76.1959 12.9079 20.7566
Au 76.1995 62.6610 6.0464
Au 76.2021 46.6567 24.7777
Au 76.2026 35.9327 4.1307
Au 76.2116 49.4597 18.2944
Au 76.2142 33.4555 37.0257
Au 76.2181 16.6334 22.4150
Au 76.2211 52.2627 11.8111
Au 76.2237 36.2585 30.5424
Au 76.2248 39.6581 5.7892
Au 76.2306 55.0657 5.3278
Au 76.2332 39.0615 24.0591
Au 76.2403 20.3588 24.0735
Au 76.2426 41.8645 17.5758
Au 76.2521 44.6675 11.0924
Au 76.2616 47.4705 4.6091
Au 76.2625 24.0843 25.7319
Au 76.2847 27.8098 27.3903
Au 76.2903 2.9016 13.1506
Au 76.3069 31.5353 29.0488
Au 76.3125 6.6270 14.8091
Au 76.3347 10.3525 16.4675
Au 76.3569 14.0780 18.1260
Au 76.3636 37.1028 1.5001
Au 76.3791 17.8035 19.7844
Au 76.3818 79.2020 33.7184
Au 76.3858 40.8282 3.1586
Au 76.4013 21.5289 21.4429
Au 76.4033 68.8037 39.4831
Au 76.4128 71.6067 32.9998
Au 76.4168 2.2296 39.7272
Au 76.4223 74.4097 26.5165
Au 76.4235 25.2544 23.1013
Au 76.4291 0.3462 8.8616
Au 76.4318 77.2127 20.0332
Au 76.4344 61.2085 38.7645
Au 76.4438 64.0115 32.2812
Au 76.4457 28.9799 24.7598
Au 76.4513 4.0716 10.5200
Au 76.4533 66.8145 25.7979
Au 76.4628 69.6174 19.3146
Au 76.4654 53.6132 38.0459
Au 76.4679 32.7053 26.4182
Au 76.4723 72.4204 12.8312
Au 76.4735 7.7971 12.1785
Au 76.4749 56.4162 31.5626
Au 76.4817 75.2234 6.3479
Au 76.4843 59.2192 25.0792
Au 76.4938 62.0222 18.5959
Au 76.4957 11.5226 13.8369
Au 76.4964 46.0180 37.3272
Au 76.5033 64.8252 12.1126
Au 76.5059 48.8209 30.8439
Au 76.5128 67.6282 5.6293
Au 76.5154 51.6239 24.3606
Au 76.5179 15.2481 15.4954
Au 76.5248 54.4269 17.8773
Au 76.5274 38.4227 36.6086
Au 76.5343 57.2299 11.3940
Au 76.5369 41.2257 30.1253
Au 76.5401 18.9735 17.1538
Au 76.5438 60.0329 4.9107
Au 76.5464 44.0287 23.6420
Au 76.5468 41.9983 0.5280
Au 76.5559 46.8317 17.1587
Au 76.5623 22.6990 18.8123
Au 76.5653 49.6347 10.6754
Au 76.5748 52.4377 4.1920
Au 76.5778 3.3997 37.0966
Au 76.5845 26.4245 20.4707
Au 76.5869 39.2364 16.4400
Au 76.5901 1.5163 6.2310
Au 76.5964 42.0394 9.9567
Au 76.6000 7.1252 38.7550
Au 76.6058 44.8424 3.4734
Au 76.6067 30.1500 22.1292
Au 76.6123 5.2417 7.8895
Au 76.6289 33.8754 23.7876
Au 76.6345 8.9672 9.5479
Au 76.6567 12.6927 11.2063
Au 76.6789 16.4182 12.8648
Au 76.7011 20.1436 14.5232
Au 76.7166 73.7709 39.0660
Au 76.7166 0.8443 32.8075
Au 76.7233 23.8691 16.1817
Au 76.7260 76.5739 32.5827
Au 76.7355 79.3769 26.0994
Au 76.7388 4.5698 34.4660
Au 76.7455 27.5946 17.8401
Au 76.7476 66.1757 38.3474
Au 76.7511 2.6863 3.6004
Au 76.7571 68.9787 31.8641
Au 76.7610 8.2953 36.1244
Au 76.7665 71.7816 25.3808
Au 76.7677 31.3200 19.4986
Au 76.7733 6.4118 5.2589
Au 76.7760 74.5846 18.8975
Au 76.7786 58.5804 37.6288
Au 76.7832 12.0207 37.7829
Au 76.7855 77.3876 12.4142
Au 76.7881 61.3834 31.1455
Au 76.7899 35.0455 21.1570
Au 76.7955 10.1373 6.9173
Au 76.7976 64.1864 24.6622
Au 76.8054 15.7462 39.4413
Au 76.8070 66.9894 18.1788
Au 76.8096 50.9851 36.9102
Au 76.8165 69.7924 11.6955
Au 76.8177 13.8628 8.5757
Au 76.8191 53.7881 30.4268
Au 76.8260 72.5954 5.2122
Au 76.8286 56.5911 23.9435
Au 76.8381 59.3941 17.4602
Au 76.8399 17.5882 10.2342
Au 76.8407 43.3899 36.1915
Au 76.8475 62.1971 10.9769
Au 76.8501 46.1929 29.7082
Au 76.8570 65.0001 4.4936
Au 76.8596 48.9959 23.2249
Au 76.8621 21.3137 11.8926
Au 76.8691 51.7989 16.7416
Au 76.8717 35.7946 35.4729
Au 76.8776 2.0144 30.1769
Au 76.8786 54.6019 10.2583
Au 76.8812 38.5976 28.9896
Au 76.8843 25.0392 13.5511
Au 76.8880 57.4049 3.7750
Au 76.8906 41.4006 22.5063
Au 76.8998 5.7399 31.8354
Au 76.9001 44.2036 16.0230
Au 76.9065 28.7647 15.2095
Au 76.9096 47.0066 9.5396
Au 76.9121 3.8564 0.9698
Au 76.9191 49.8096 3.0563
Au 76.9220 9.4654 33.4938
Au 76.9287 32.4901 16.8680
Au 76.9343 7.5819 2.6283
Au 76.9442 13.1908 35.1523
Au 76.9509 36.2156 18.5264
Au 76.9565 11.3074 4.2867
Au 76.9664 16.9163 36.8107
Au 76.9787 15.0329 5.9452
Au 76.9886 20.6418 38.4692
Au 77.0009 18.7583 7.6036
Au 77.0231 22.4838 9.2620
Au 77.0298 78.7381 38.6490
Au 77.0386 3.1845 27.5463
Au 77.0453 26.2093 10.9205
Au 77.0608 6.9100 29.2048
Au 77.0608 71.1429 37.9303
Au 77.0675 29.9347 12.5789
Au 77.0703 73.9459 31.4470
Au 77.0798 76.7488 24.9637
Au 77.0830 10.6354 30.8632
Au 77.0892 79.5518 18.4804
Au 77.0897 33.6602 14.2374
Au 77.0918 63.5476 37.2117
Au 77.1013 66.3506 30.7284
Au 77.1052 14.3609 32.5217
Au 77.1108 69.1536 24.2451
Au 77.1119 37.3857 15.8958
Au 77.1175 12.4775 1.6561
Au 77.1203 71.9566 17.7618
Au 77.1229 55.9523 36.4931
Au 77.1274 18.0864 34.1801
Au 77.1297 74.7596 11.2784
Au 77.1323 58.7553 30.0098
Au 77.1392 77.5626 4.7951
Au 77.1397 16.2029 3.3146
Au 77.1418 61.5583 23.5264
Au 77.1496 21.8119 35.8386
Au 77.1513 64.3613 17.0431
Au 77.1539 48.3571 35.7745
Au 77.1608 67.1643 10.5598
Au 77.1619 19.9284 4.9730
Au 77.1634 51.1601 29.2911
Au 77.1703 69.9673 4.0765
Au 77.1718 25.5373 37.4970
Au 77.1729 53.9631 22.8078
Au 77.1774 0.6291 23.2573
Au 77.1823 56.7661 16.3245
Au 77.1841 23.6539 6.6315
Au 77.1849 40.7618 35.0558
Au 77.1918 59.5691 9.8412
Au 77.1940 29.2628 39.1555
Au 77.1944 43.5648 28.5725
Au 77.1996 4.3546 24.9157
Au 77.2013 62.3721 3.3579
Au 77.2039 46.3678 22.0892
Au 77.2063 27.3794 8.2899
Au 77.2134 49.1708 15.6059
Au 77.2160 33.1666 34.3372
Au 77.2218 8.0801 26.5742
Au 77.2228 51.9738 9.1226
Au 77.2254 35.9696 27.8539
Au 77.2285 31.1048 9.9483
Au 77.2323 54.7768 2.6392
Au 77.2349 38.7726 21.3706
Au 77.2440 11.8055 28.2326
Au 77.2444 41.5756 14.8873
Au 77.2507 34.8303 11.6068
Au 77.2539 44.3786 8.4039
Au 77.2633 47.1816 1.9206
Au 77.2662 15.5310 29.8911
Au 77.2729 38.5558 13.2652
Au 77.2884 19.2565 31.5495
Au 77.3007 17.3730 0.6840
Au 77.3106 22.9819 33.2080
Au 77.3229 21.0985 2.3424
Au 77.3328 26.7074 34.8664
Au 77.3384 1.7992 20.6267
Au 77.3451 24.8240 4.0009
Au 77.3550 30.4329 36.5249
Au 77.3606 5.5247 22.2851
Au 77.3673 28.5494 5.6593
Au 77.3740 76.1101 37.5132
Au 77.3828 9.2501 23.9436
Au 77.3835 78.9130 31.0299
Au 77.3895 32.2749 7.3178
Au 77.4050 12.9756 25.6020
Au 77.4051 68.5148 36.7946
Au 77.4117 36.0004 8.9762
Au 77.4146 71.3178 30.3113
Au 77.4240 74.1208 23.8280
Au 77.4272 16.7011 27.2605
Au 77.4335 76.9238 17.3447
Au 77.4339 39.7259 10.6346
Au 77.4361 60.9195 36.0760
Au 77.4430 79.7268 10.8614
Au 77.4456 63.7225 29.5927
Au 77.4494 20.4266 28.9189
Au 77.4551 66.5255 23.1094
Au 77.4645 69.3285 16.6260
Au 77.4671 53.3243 35.3574
Au 77.4716 24.1520 30.5774
Au 77.4740 72.1315 10.1427
Au 77.4766 56.1273 28.8741
Au 77.4835 74.9345 3.6594
Au 77.4861 58.9303 22.3907
Au 77.4938 27.8775 32.2358
Au 77.4956 61.7333 15.9074
Au 77.4982 45.7290 34.6387
Au 77.4994 2.9693 17.9961
Au 77.5050 64.5363 9.4241
Au 77.5061 25.9941 1.3703
Au 77.5076 48.5320 28.1554
Au 77.5145 67.3393 2.9408
Au 77.5171 51.3350 21.6721
Au 77.5216 6.6947 19.6546
Au 77.5266 54.1380 15.1888
Au 77.5283 29.7195 3.0287
Au 77.5292 38.1338 33.9201
Au 77.5361 56.9410 8.7055
Au 77.5387 40.9368 27.4368
Au 77.5438 10.4202 21.3130
Au 77.5455 59.7440 2.2222
Au 77.5481 43.7398 20.9535
Au 77.5505 33.4450 4.6872
Au 77.5576 46.5428 14.4702
Au 77.5660 14.1457 22.9714
Au 77.5671 49.3458 7.9869
Au 77.5727 37.1705 6.3456
Au 77.5766 52.1487 1.5035
Au 77.5882 17.8712 24.6299
Au 77.5949 40.8959 8.0040
Au 77.6104 21.5966 26.2883
Au 77.6326 25.3221 27.9468
Au 77.6382 0.4139 13.7071
Au 77.6548 29.0476 29.6052
Au 77.6604 4.1394 15.3655
Au 77.6770 32.7731 31.2637
Au 77.6826 7.8648 17.0240
Au 77.6893 30.8896 0.3981
Au 77.7048 11.5903 18.6824
Au 77.7115 34.6151 2.0566
Au 77.7183 73.4820 36.3775
Au 77.7270 15.3158 20.3409
Au 77.7278 76.2850 29.8942
Au 77.7337 38.3406 3.7150
Au 77.7373 79.0880 23.4109
Au 77.7492 19.0413 21.9993
Au 77.7493 65.8867 35.6589
Au 77.7559 42.0660 5.3735
Au 77.7588 68.6897 29.1756
Au 77.7683 71.4927 22.6923
Au 77.7714 22.7667 23.6577
Au 77.7778 74.2957 16.2090
Au 77.7804 58.2915 34.9403
Au 77.7872 77.0987 9.7256
Au 77.7898 61.0945 28.4570
Au 77.7936 26.4922 25.3162
Au 77.7967 79.9017 3.2423
Au 77.7992 1.5840 11.0765
Au 77.7993 63.8975 21.9737
Au 77.8088 66.7005 15.4903
Au 77.8114 50.6962 34.2217
Au 77.8158 30.2177 26.9746
Au 77.8183 69.5035 9.0070
Au 77.8209 53.4992 27.7383
Au 77.8214 5.3094 12.7349
Au 77.8277 72.3065 2.5237
Au 77.8303 56.3022 21.2550
Au 77.8329 40.2980 39.9863
Au 77.8380 33.9431 28.6331
Au 77.8398 59.1052 14.7717
Au 77.8424 43.1010 33.5030
Au 77.8436 9.0349 14.3934
Au 77.8493 61.9082 8.2884
Au 77.8519 45.9040 27.0197
Au 77.8588 64.7112 1.8051
Au 77.8614 48.7070 20.5364
Au 77.8640 32.7027 39.2677
Au 77.8658 12.7604 16.0518
Au 77.8708 51.5100 14.0531
Au 77.8734 35.5057 32.7844
Au 77.8803 54.3130 7.5698
Au 77.8829 38.3087 26.3011
Au 77.8880 16.4859 17.7103
Au 77.8898 57.1159 1.0865
Au 77.8924 41.1117 19.8178
Au 77.8947 39.5106 1.0844
Au 77.9019 43.9147 13.3345
Au 77.9102 20.2113 19.3687
Au 77.9114 46.7177 6.8511
Au 77.9169 43.2361 2.7429
Au 77.9208 49.5207 0.3678
Au 77.9257 0.9120 37.6530
Au 77.9324 23.9368 21.0271
Au 77.9479 4.6375 39.3114
Au 77.9546 27.6623 22.6856
Au 77.9602 2.7541 8.4459
Au 77.9768 31.3878 24.3440
Au 77.9824 6.4795 10.1043
Au 77.9990 35.1132 26.0025
Au 78.0046 10.2050 11.7628
Au 78.0268 13.9305 13.4212
Au 78.0315 78.4492 35.9605
Au 78.0490 17.6560 15.0797
Au 78.0626 70.8539 35.2418
Au 78.0712 21.3814 16.7381
Au 78.0720 73.6569 28.7585
Au 78.0779 44.4062 0.1123
Au 78.0815 76.4599 22.2752
Au 78.0867 2.0821 35.0224
Au 78.0910 79.2629 15.7919
Au 78.0934 25.1069 18.3966
Au 78.0936 63.2587 34.5232
Au 78.0991 0.1987 4.1568
Au 78.1031 66.0617 28.0399
Au 78.1089 5.8076 36.6808
Au 78.1125 68.8647 21.5566
Au 78.1156 28.8324 20.0550
Au 78.1213 3.9241 5.8153
Au 78.1220 71.6677 15.0733
Au 78.1246 55.6634 33.8046
Au 78.1311 9.5331 38.3393
Au 78.1315 74.4707 8.5899
Au 78.1341 58.4664 27.3213
Au 78.1378 32.5578 21.7134
Au 78.1410 77.2737 2.1066
Au 78.1434 7.6496 7.4737
Au 78.1436 61.2694 20.8379
Au 78.1462 45.2652 39.5693
Au 78.1531 64.0724 14.3546
Au 78.1533 13.2585 39.9977
Au 78.1557 48.0682 33.0859
Au 78.1625 66.8754 7.8713
Au 78.1651 50.8712 26.6026
Au 78.1656 11.3751 9.1322
Au 78.1720 69.6784 1.3880
Au 78.1746 53.6742 20.1193
Au 78.1772 37.6699 38.8506
Au 78.1841 56.4772 13.6360
Au 78.1867 40.4729 32.3673
Au 78.1878 15.1006 10.7906
Au 78.1936 59.2801 7.1527
Au 78.1962 43.2759 25.8840
Au 78.2030 62.0831 0.6694
Au 78.2056 46.0789 19.4007
Au 78.2100 18.8260 12.4491
Au 78.2151 48.8819 12.9174
Au 78.2246 51.6849 6.4341
Au 78.2322 22.5515 14.1075
Au 78.2367 38.4836 18.6821
Au 78.2461 41.2866 12.1987
Au 78.2477 3.2522 32.3918
Au 78.2544 26.2770 15.7660
Au 78.2556 44.0896 5.7154
Au 78.2601 1.3688 1.5263
Au 78.2699 6.9777 34.0502
Au 78.2766 30.0025 17.4244
Au 78.2823 5.0942 3.1847
Au 78.2921 10.7032 35.7087
Au 78.2988 33.7279 19.0829
Au 78.3044 8.8197 4.8431
Au 78.3143 14.4286 37.3671
Au 78.3266 12.5452 6.5016
Au 78.3365 18.1541 39.0256
Au 78.3488 16.2706 8.1600
Au 78.3710 19.9961 9.8185
Au 78.3758 75.8211 34.8247
Au 78.3853 78.6241 28.3414
Au 78.3865 0.6968 28.1028
Au 78.3932 23.7216 11.4769
Au 78.4068 68.2259 34.1061
Au 78.4087 4.4223 29.7612
Au 78.4154 27.4471 13.1354
Au 78.4163 71.0289 27.6228
Au 78.4258 73.8319 21.1395
Au 78.4284 57.8276 39.8708
Au 78.4309 8.1478 31.4197
Au 78.4353 76.6349 14.6562
Au 78.4376 31.1725 14.7938
Au 78.4379 60.6306 33.3875
Au 78.4433 6.2643 0.5541
Au 78.4447 79.4379 8.1729
Au 78.4473 63.4336 26.9042
Au 78.4531 11.8732 33.0781
Au 78.4568 66.2366 20.4209
Au 78.4594 50.2324 39.1522
Au 78.4598 34.8980 16.4523
Au 78.4654 9.9898 2.2125
Au 78.4663 69.0396 13.9375
Au 78.4689 53.0354 32.6689
Au 78.4753 15.5987 34.7365
Au 78.4758 71.8426 7.4542
Au 78.4784 55.8384 26.1855
Au 78.4852 74.6456 0.9709
Au 78.4876 13.7153 3.8710
Au 78.4878 58.6414 19.7022
Au 78.4904 42.6371 38.4336
Au 78.4973 61.4444 13.2189
Au 78.4975 19.3242 36.3950
Au 78.4999 45.4401 31.9502
Au 78.5068 64.2473 6.7356
Au 78.5094 48.2431 25.4669
Au 78.5098 17.4407 5.5294
Au 78.5163 67.0503 0.2523
Au 78.5189 51.0461 18.9836
Au 78.5197 23.0497 38.0534
Au 78.5215 35.0419 37.7149
Au 78.5283 53.8491 12.5003
Au 78.5309 37.8449 31.2316
Au 78.5320 21.1662 7.1879
Au 78.5378 56.6521 6.0170
Au 78.5404 40.6479 24.7483
Au 78.5419 26.7751 39.7119
Au 78.5475 1.8669 25.4722
Au 78.5499 43.4508 18.2650
Au 78.5542 24.8917 8.8463
Au 78.5594 46.2538 11.7817
Au 78.5688 49.0568 5.2983
Au 78.5697 5.5924 27.1306
Au 78.5764 28.6172 10.5048
Au 78.5919 9.3178 28.7891
Au 78.5986 32.3426 12.1632
Au 78.6141 13.0433 30.4475
Au 78.6208 36.0681 13.8217
Au 78.6363 16.7688 32.1060
Au 78.6486 14.8853 1.2404
Au 78.6585 20.4943 33.7644
Au 78.6708 18.6108 2.8988
Au 78.6807 24.2197 35.4228
Au 78.6930 22.3363 4.5573
Au 78.7029 27.9452 37.0813
Au 78.7085 3.0370 22.8416
Au 78.7152 26.0618 6.2157
Au 78.7201 73.1931 33.6890
Au 78.7295 75.9961 27.2057
Au 78.7307 6.7625 24.5000
Au 78.7374 29.7872 7.8742
Au 78.7390 78.7991 20.7224
Au 78.7416 62.7948 39.4537
Au 78.7511 65.5978 32.9704
Au 78.7529 10.4879 26.1585
Au 78.7596 33.5127 9.5326
Au 78.7606 68.4008 26.4871
Au 78.7700 71.2038 20.0038
Au 78.7726 55.1996 38.7351
Au 78.7751 14.2134 27.8169
Au 78.7795 74.0068 13.5205
Au 78.7818 37.2382 11.1911
Au 78.7821 58.0026 32.2518
Au 78.7890 76.8098 7.0371
Au 78.7916 60.8056 25.7685
Au 78.7973 17.9389 29.4754
Au 78.7985 79.6128 0.5538
Au 78.8011 63.6086 19.2851
Au 78.8037 47.6043 38.0165
Au 78.8105 66.4116 12.8018
Au 78.8131 50.4073 31.5332
Au 78.8195 21.6644 31.1338
Au 78.8200 69.2145 6.3185
Au 78.8226 53.2103 25.0498
Au 78.8318 19.7809 0.2683
Au 78.8321 56.0133 18.5665
Au 78.8347 40.0091 37.2978
Au 78.8416 58.8163 12.0832
Au 78.8417 25.3898 32.7923
Au 78.8442 42.8121 30.8145
Au 78.8474 0.4816 18.5525
Au 78.8510 61.6193 5.5999
Au 78.8536 45.6151 24.3312
Au 78.8540 23.5064 1.9267
Au 78.8631 48.4180 17.8479
Au 78.8639 29.1153 34.4507
Au 78.8657 32.4138 36.5792
Au 78.8695 4.2071 20.2110
Au 78.8726 51.2210 11.3646
Au 78.8752 35.2168 30.0959
Au 78.8762 27.2319 3.5851
Au 78.8821 54.0240 4.8813
Au 78.8847 38.0198 23.6126
Au 78.8917 7.9325 21.8694
Au 78.8942 40.8228 17.1293
Au 78.8984 30.9573 5.2436
Au 78.9036 43.6258 10.6460
Au 78.9131 46.4288 4.1626
Au 78.9139 11.6580 23.5279
Au 78.9206 34.6828 6.9020
Au 78.9361 15.3835 25.1863
Au 78.9428 38.4083 8.5605
Au 78.9583 19.1090 26.8448
Au 78.9805 22.8344 28.5032
Au 79.0027 26.5599 30.1617
Au 79.0084 1.6517 15.9219
Au 79.0238 75.3573 39.7553
Au 79.0249 30.2854 31.8201
Au 79.0305 5.3772 17.5804
Au 79.0333 78.1603 33.2719
Au 79.0372 28.4019 0.9546
Au 79.0527 9.1026 19.2388
Au 79.0548 67.7620 39.0366
Au 79.0594 32.1274 2.6130
Au 79.0643 70.5650 32.5533
Au 79.0738 73.3680 26.0700
Au 79.0749 12.8281 20.8973
Au 79.0816 35.8529 4.2714
Au 79.0833 76.1710 19.5867
Au 79.0859 60.1668 38.3180
Au 79.0927 78.9740 13.1034
Au 79.0953 62.9698 31.8347
Au 79.0971 16.5536 22.5557
Au 79.1038 39.5784 5.9299
Au 79.1048 65.7728 25.3514
Au 79.1143 68.5758 18.8681
Au 79.1169 52.5715 37.5994
Au 79.1193 20.2791 24.2142
Au 79.1238 71.3787 12.3847
Au 79.1264 55.3745 31.1161
Au 79.1333 74.1817 5.9014
Au 79.1359 58.1775 24.6328
Au 79.1415 24.0045 25.8726
Au 79.1453 60.9805 18.1494
Au 79.1479 44.9763 36.8808
Au 79.1548 63.7835 11.6661
Au 79.1574 47.7793 30.3974
Au 79.1637 27.7300 27.5311
Au 79.1643 66.5865 5.1828
Au 79.1669 50.5822 23.9141
Au 79.1694 2.8218 13.2914
Au 79.1764 53.3852 17.4308
Au 79.1790 37.3810 36.1621
Au 79.1858 56.1882 10.9475
Au 79.1859 31.4555 29.1895
Au 79.1884 40.1840 29.6788
Au 79.1916 6.5472 14.9498
Au 79.1953 58.9912 4.4642
Au 79.1979 42.9870 23.1955
Au 79.2074 45.7900 16.7122
Au 79.2137 10.2727 16.6082
Au 79.2169 48.5930 10.2289
Au 79.2263 51.3960 3.7456
Au 79.2359 13.9982 18.2667
Au 79.2426 37.0230 1.6409
Au 79.2479 40.9977 9.5102
Au 79.2581 17.7237 19.9251
Au 79.2648 40.7484 3.2993
Au 79.2803 21.4491 21.5836
Au 79.2958 2.1498 39.8679
Au 79.3025 25.1746 23.2420
Au 79.3082 0.2664 9.0023
Au 79.3247 28.9001 24.9005
Au 79.3304 3.9919 10.6608
Au 79.3469 32.6256 26.5589
Au 79.3526 7.7173 12.3192
Au 79.3681 72.7292 38.6196
Au 79.3747 11.4428 13.9777
Au 79.3776 75.5322 32.1362
Au 79.3870 78.3352 25.6529
Au 79.3969 15.1683 15.6361
Au 79.3991 65.1340 37.9009
Au 79.4086 67.9370 31.4176
Au 79.4181 70.7400 24.9343
Au 79.4191 18.8937 17.2945
Au 79.4258 41.9185 0.6687
Au 79.4275 73.5430 18.4510
Au 79.4301 57.5387 37.1823
Au 79.4370 76.3459 11.9677
Au 79.4396 60.3417 30.6990
Au 79.4413 22.6192 18.9530
Au 79.4465 79.1489 5.4843
Au 79.4491 63.1447 24.2157
Au 79.4568 3.3199 37.2373
Au 79.4586 65.9477 17.7324
Au 79.4612 49.9435 36.4637
Au 79.4635 26.3447 20.6114
Au 79.4680 68.7507 11.2490
Au 79.4692 1.4365 6.3717
Au 79.4706 52.7465 29.9804
Au 79.4775 71.5537 4.7657
Au 79.4790 7.0454 38.8957
Au 79.4801 55.5494 23.4970
Au 79.4857 30.0702 22.2699
Au 79.4896 58.3524 17.0137
Au 79.4914 5.1619 8.0302
Au 79.4922 42.3482 35.7450
Au 79.4991 61.1554 10.5304
Au 79.5017 45.1512 29.2617
Au 79.5079 33.7956 23.9283
Au 79.5085 63.9584 4.0471
Au 79.5111 47.9542 22.7784
Au 79.5136 8.8874 9.6886
Au 79.5206 50.7572 16.2951
Au 79.5232 34.7529 35.0264
Au 79.5301 53.5602 9.8118
Au 79.5327 37.5559 28.5431
Au 79.5357 12.6129 11.3471
Au 79.5396 56.3632 3.3285
Au 79.5422 40.3589 22.0598
Au 79.5516 43.1619 15.5765
Au 79.5579 16.3384 13.0055
Au 79.5611 45.9649 9.0932
Au 79.5706 48.7679 2.6098
Au 79.5801 20.0638 14.6640
Au 79.5956 0.7645 32.9482
Au 79.6023 23.7893 16.3224
Au 79.6178 4.4900 34.6067
Au 79.6245 27.5148 17.9808
Au 79.6302 2.6066 3.7411
Au 79.6400 8.2155 36.2651
Au 79.6467 31.2403 19.6393
Au 79.6524 6.3320 5.3996
Au 79.6622 11.9409 37.9236
Au 79.6689 34.9657 21.2977
Au 79.6746 10.0575 7.0580
Au 79.6813 77.6964 38.2025
Au 79.6844 15.6664 39.5820
Au 79.6968 13.7830 8.7165
Au 79.7123 70.1012 37.4838
Au 79.7189 17.5084 10.3749
Au 79.7218 72.9042 31.0005
Au 79.7313 75.7072 24.5172
Au 79.7408 78.5101 18.0339
Au 79.7411 21.2339 12.0334
Au 79.7434 62.5059 36.7652
Au 79.7528 65.3089 30.2819
Au 79.7567 1.9346 30.3176
Au 79.7623 68.1119 23.7986
Au 79.7633 24.9594 13.6918
Au 79.7718 70.9149 17.3153
Au 79.7744 54.9107 36.0466
Au 79.7788 5.6601 31.9761
Au 79.7813 73.7179 10.8320
Au 79.7839 57.7136 29.5633
Au 79.7855 28.6849 15.3502
Au 79.7907 76.5209 4.3486
Au 79.7912 3.7766 1.1105
Au 79.7933 60.5166 23.0800
Au 79.8010 9.3856 33.6345
Au 79.8028 63.3196 16.5966
Au 79.8054 47.3154 35.3280
Au 79.8077 32.4103 17.0087
Au 79.8123 66.1226 10.1133
Au 79.8134 7.5021 2.7690
Au 79.8149 50.1184 28.8446
Au 79.8218 68.9256 3.6300
Au 79.8232 13.1110 35.2930
Au 79.8244 52.9214 22.3613
Au 79.8299 36.1358 18.6671
Au 79.8338 55.7244 15.8780
Au 79.8356 11.2276 4.4274
Au 79.8364 39.7201 34.6093
Au 79.8433 58.5274 9.3947
Au 79.8454 16.8365 36.9514
Au 79.8459 42.5231 28.1260
Au 79.8528 61.3304 2.9114
Au 79.8554 45.3261 21.6427
Au 79.8578 14.9531 6.0859
Au 79.8649 48.1291 15.1594
Au 79.8675 32.1249 33.8907
Au 79.8676 20.5620 38.6099
Au 79.8744 50.9321 8.6761
Au 79.8770 34.9279 27.4074
Au 79.8799 18.6785 7.7443
Au 79.8838 53.7351 2.1928
Au 79.8864 37.7309 20.9241
Au 79.8959 40.5339 14.4408
Au 79.9021 22.4040 9.4028
Au 79.9054 43.3369 7.9574
Au 79.9149 46.1399 1.4741
Au 79.9177 3.1047 27.6871
Au 79.9243 26.1295 11.0612
Au 79.9398 6.8302 29.3455
Au 79.9465 29.8550 12.7197
Au 79.9620 10.5556 31.0039
Au 79.9687 33.5804 14.3781
Au 79.9744 8.6722 0.1384
Au 79.9842 14.2811 32.6624
Au 79.9909 37.3059 16.0365
Au 79.9966 12.3977 1.7968
